c rooted gen4416 counterexample classifier
c x(i,j)=1+8*i+j for 0<=i<7, 0<=j<8; 1 means raw edge
c s(a,b)=57+3*a+b for 0<=a<9, 0<=b<3
c gen4416 sha256 D342D951433311239BA7AB5C0EEF809A7588B41C0E8A472E8930BD77D5489C6C
c r35_7.g6 sha256 DB838EEDFFE06069481E392FB6635C616A38A3C42BD130BA945B51B9B47A7AC2
c r35_8.g6 sha256 6832892B9953C2DBB34A2BD9C9E4B3E1C38BAD272993925C46A65F21F1D0F807
p cnf 83 10880
57 58 59 60 61 62 63 64 65 66 67 68 69 70 71 72 73 74 75 76 77 78 79 80 81 82 83 0
-57 -1 -2 -3 0
-57 -9 -10 -11 0
-57 -17 -18 -19 0
-57 -25 -26 -27 0
-57 -33 -34 -35 0
-57 -41 -42 -43 0
-57 -49 -50 -51 0
-57 -1 -2 -4 0
-57 -9 -10 -12 0
-57 -17 -18 -20 0
-57 -25 -26 -28 0
-57 -33 -34 -36 0
-57 -41 -42 -44 0
-57 -49 -50 -52 0
-57 -1 -3 -6 0
-57 -9 -11 -14 0
-57 -17 -19 -22 0
-57 -25 -27 -30 0
-57 -33 -35 -38 0
-57 -41 -43 -46 0
-57 -49 -51 -54 0
-57 -1 -4 -7 0
-57 -9 -12 -15 0
-57 -17 -20 -23 0
-57 -25 -28 -31 0
-57 -33 -36 -39 0
-57 -41 -44 -47 0
-57 -49 -52 -55 0
-57 -1 -6 -7 0
-57 -9 -14 -15 0
-57 -17 -22 -23 0
-57 -25 -30 -31 0
-57 -33 -38 -39 0
-57 -41 -46 -47 0
-57 -49 -54 -55 0
-57 -2 -3 -8 0
-57 -10 -11 -16 0
-57 -18 -19 -24 0
-57 -26 -27 -32 0
-57 -34 -35 -40 0
-57 -42 -43 -48 0
-57 -50 -51 -56 0
-57 -2 -4 -5 0
-57 -10 -12 -13 0
-57 -18 -20 -21 0
-57 -26 -28 -29 0
-57 -34 -36 -37 0
-57 -42 -44 -45 0
-57 -50 -52 -53 0
-57 -2 -5 -8 0
-57 -10 -13 -16 0
-57 -18 -21 -24 0
-57 -26 -29 -32 0
-57 -34 -37 -40 0
-57 -42 -45 -48 0
-57 -50 -53 -56 0
-57 -3 -6 -8 0
-57 -11 -14 -16 0
-57 -19 -22 -24 0
-57 -27 -30 -32 0
-57 -35 -38 -40 0
-57 -43 -46 -48 0
-57 -51 -54 -56 0
-57 -4 -5 -7 0
-57 -12 -13 -15 0
-57 -20 -21 -23 0
-57 -28 -29 -31 0
-57 -36 -37 -39 0
-57 -44 -45 -47 0
-57 -52 -53 -55 0
-57 -1 -2 -25 -26 0
-57 -1 -3 -25 -27 0
-57 -1 -4 -25 -28 0
-57 -1 -6 -25 -30 0
-57 -1 -7 -25 -31 0
-57 -2 -3 -26 -27 0
-57 -2 -4 -26 -28 0
-57 -2 -5 -26 -29 0
-57 -2 -8 -26 -32 0
-57 -3 -6 -27 -30 0
-57 -3 -8 -27 -32 0
-57 -4 -5 -28 -29 0
-57 -4 -7 -28 -31 0
-57 -5 -7 -29 -31 0
-57 -5 -8 -29 -32 0
-57 -6 -7 -30 -31 0
-57 -6 -8 -30 -32 0
-57 -1 -2 -41 -42 0
-57 -1 -3 -41 -43 0
-57 -1 -4 -41 -44 0
-57 -1 -6 -41 -46 0
-57 -1 -7 -41 -47 0
-57 -2 -3 -42 -43 0
-57 -2 -4 -42 -44 0
-57 -2 -5 -42 -45 0
-57 -2 -8 -42 -48 0
-57 -3 -6 -43 -46 0
-57 -3 -8 -43 -48 0
-57 -4 -5 -44 -45 0
-57 -4 -7 -44 -47 0
-57 -5 -7 -45 -47 0
-57 -5 -8 -45 -48 0
-57 -6 -7 -46 -47 0
-57 -6 -8 -46 -48 0
-57 -9 -10 -33 -34 0
-57 -9 -11 -33 -35 0
-57 -9 -12 -33 -36 0
-57 -9 -14 -33 -38 0
-57 -9 -15 -33 -39 0
-57 -10 -11 -34 -35 0
-57 -10 -12 -34 -36 0
-57 -10 -13 -34 -37 0
-57 -10 -16 -34 -40 0
-57 -11 -14 -35 -38 0
-57 -11 -16 -35 -40 0
-57 -12 -13 -36 -37 0
-57 -12 -15 -36 -39 0
-57 -13 -15 -37 -39 0
-57 -13 -16 -37 -40 0
-57 -14 -15 -38 -39 0
-57 -14 -16 -38 -40 0
-57 -9 -10 -49 -50 0
-57 -9 -11 -49 -51 0
-57 -9 -12 -49 -52 0
-57 -9 -14 -49 -54 0
-57 -9 -15 -49 -55 0
-57 -10 -11 -50 -51 0
-57 -10 -12 -50 -52 0
-57 -10 -13 -50 -53 0
-57 -10 -16 -50 -56 0
-57 -11 -14 -51 -54 0
-57 -11 -16 -51 -56 0
-57 -12 -13 -52 -53 0
-57 -12 -15 -52 -55 0
-57 -13 -15 -53 -55 0
-57 -13 -16 -53 -56 0
-57 -14 -15 -54 -55 0
-57 -14 -16 -54 -56 0
-57 -17 -18 -41 -42 0
-57 -17 -19 -41 -43 0
-57 -17 -20 -41 -44 0
-57 -17 -22 -41 -46 0
-57 -17 -23 -41 -47 0
-57 -18 -19 -42 -43 0
-57 -18 -20 -42 -44 0
-57 -18 -21 -42 -45 0
-57 -18 -24 -42 -48 0
-57 -19 -22 -43 -46 0
-57 -19 -24 -43 -48 0
-57 -20 -21 -44 -45 0
-57 -20 -23 -44 -47 0
-57 -21 -23 -45 -47 0
-57 -21 -24 -45 -48 0
-57 -22 -23 -46 -47 0
-57 -22 -24 -46 -48 0
-57 -17 -18 -49 -50 0
-57 -17 -19 -49 -51 0
-57 -17 -20 -49 -52 0
-57 -17 -22 -49 -54 0
-57 -17 -23 -49 -55 0
-57 -18 -19 -50 -51 0
-57 -18 -20 -50 -52 0
-57 -18 -21 -50 -53 0
-57 -18 -24 -50 -56 0
-57 -19 -22 -51 -54 0
-57 -19 -24 -51 -56 0
-57 -20 -21 -52 -53 0
-57 -20 -23 -52 -55 0
-57 -21 -23 -53 -55 0
-57 -21 -24 -53 -56 0
-57 -22 -23 -54 -55 0
-57 -22 -24 -54 -56 0
-57 -25 -26 -33 -34 0
-57 -25 -27 -33 -35 0
-57 -25 -28 -33 -36 0
-57 -25 -30 -33 -38 0
-57 -25 -31 -33 -39 0
-57 -26 -27 -34 -35 0
-57 -26 -28 -34 -36 0
-57 -26 -29 -34 -37 0
-57 -26 -32 -34 -40 0
-57 -27 -30 -35 -38 0
-57 -27 -32 -35 -40 0
-57 -28 -29 -36 -37 0
-57 -28 -31 -36 -39 0
-57 -29 -31 -37 -39 0
-57 -29 -32 -37 -40 0
-57 -30 -31 -38 -39 0
-57 -30 -32 -38 -40 0
-57 -25 -26 -49 -50 0
-57 -25 -27 -49 -51 0
-57 -25 -28 -49 -52 0
-57 -25 -30 -49 -54 0
-57 -25 -31 -49 -55 0
-57 -26 -27 -50 -51 0
-57 -26 -28 -50 -52 0
-57 -26 -29 -50 -53 0
-57 -26 -32 -50 -56 0
-57 -27 -30 -51 -54 0
-57 -27 -32 -51 -56 0
-57 -28 -29 -52 -53 0
-57 -28 -31 -52 -55 0
-57 -29 -31 -53 -55 0
-57 -29 -32 -53 -56 0
-57 -30 -31 -54 -55 0
-57 -30 -32 -54 -56 0
-57 -33 -34 -41 -42 0
-57 -33 -35 -41 -43 0
-57 -33 -36 -41 -44 0
-57 -33 -38 -41 -46 0
-57 -33 -39 -41 -47 0
-57 -34 -35 -42 -43 0
-57 -34 -36 -42 -44 0
-57 -34 -37 -42 -45 0
-57 -34 -40 -42 -48 0
-57 -35 -38 -43 -46 0
-57 -35 -40 -43 -48 0
-57 -36 -37 -44 -45 0
-57 -36 -39 -44 -47 0
-57 -37 -39 -45 -47 0
-57 -37 -40 -45 -48 0
-57 -38 -39 -46 -47 0
-57 -38 -40 -46 -48 0
-57 1 9 17 0
-57 2 10 18 0
-57 3 11 19 0
-57 4 12 20 0
-57 5 13 21 0
-57 6 14 22 0
-57 7 15 23 0
-57 8 16 24 0
-57 1 17 33 0
-57 2 18 34 0
-57 3 19 35 0
-57 4 20 36 0
-57 5 21 37 0
-57 6 22 38 0
-57 7 23 39 0
-57 8 24 40 0
-57 1 33 49 0
-57 2 34 50 0
-57 3 35 51 0
-57 4 36 52 0
-57 5 37 53 0
-57 6 38 54 0
-57 7 39 55 0
-57 8 40 56 0
-57 9 17 25 0
-57 10 18 26 0
-57 11 19 27 0
-57 12 20 28 0
-57 13 21 29 0
-57 14 22 30 0
-57 15 23 31 0
-57 16 24 32 0
-57 9 25 41 0
-57 10 26 42 0
-57 11 27 43 0
-57 12 28 44 0
-57 13 29 45 0
-57 14 30 46 0
-57 15 31 47 0
-57 16 32 48 0
-57 1 5 9 13 0
-57 1 8 9 16 0
-57 2 6 10 14 0
-57 2 7 10 15 0
-57 3 4 11 12 0
-57 3 5 11 13 0
-57 3 7 11 15 0
-57 4 6 12 14 0
-57 4 8 12 16 0
-57 5 6 13 14 0
-57 7 8 15 16 0
-57 1 5 17 21 0
-57 1 8 17 24 0
-57 2 6 18 22 0
-57 2 7 18 23 0
-57 3 4 19 20 0
-57 3 5 19 21 0
-57 3 7 19 23 0
-57 4 6 20 22 0
-57 4 8 20 24 0
-57 5 6 21 22 0
-57 7 8 23 24 0
-57 1 5 33 37 0
-57 1 8 33 40 0
-57 2 6 34 38 0
-57 2 7 34 39 0
-57 3 4 35 36 0
-57 3 5 35 37 0
-57 3 7 35 39 0
-57 4 6 36 38 0
-57 4 8 36 40 0
-57 5 6 37 38 0
-57 7 8 39 40 0
-57 1 5 49 53 0
-57 1 8 49 56 0
-57 2 6 50 54 0
-57 2 7 50 55 0
-57 3 4 51 52 0
-57 3 5 51 53 0
-57 3 7 51 55 0
-57 4 6 52 54 0
-57 4 8 52 56 0
-57 5 6 53 54 0
-57 7 8 55 56 0
-57 9 13 17 21 0
-57 9 16 17 24 0
-57 10 14 18 22 0
-57 10 15 18 23 0
-57 11 12 19 20 0
-57 11 13 19 21 0
-57 11 15 19 23 0
-57 12 14 20 22 0
-57 12 16 20 24 0
-57 13 14 21 22 0
-57 15 16 23 24 0
-57 9 13 25 29 0
-57 9 16 25 32 0
-57 10 14 26 30 0
-57 10 15 26 31 0
-57 11 12 27 28 0
-57 11 13 27 29 0
-57 11 15 27 31 0
-57 12 14 28 30 0
-57 12 16 28 32 0
-57 13 14 29 30 0
-57 15 16 31 32 0
-57 9 13 41 45 0
-57 9 16 41 48 0
-57 10 14 42 46 0
-57 10 15 42 47 0
-57 11 12 43 44 0
-57 11 13 43 45 0
-57 11 15 43 47 0
-57 12 14 44 46 0
-57 12 16 44 48 0
-57 13 14 45 46 0
-57 15 16 47 48 0
-57 17 21 25 29 0
-57 17 24 25 32 0
-57 18 22 26 30 0
-57 18 23 26 31 0
-57 19 20 27 28 0
-57 19 21 27 29 0
-57 19 23 27 31 0
-57 20 22 28 30 0
-57 20 24 28 32 0
-57 21 22 29 30 0
-57 23 24 31 32 0
-57 17 21 33 37 0
-57 17 24 33 40 0
-57 18 22 34 38 0
-57 18 23 34 39 0
-57 19 20 35 36 0
-57 19 21 35 37 0
-57 19 23 35 39 0
-57 20 22 36 38 0
-57 20 24 36 40 0
-57 21 22 37 38 0
-57 23 24 39 40 0
-57 25 29 41 45 0
-57 25 32 41 48 0
-57 26 30 42 46 0
-57 26 31 42 47 0
-57 27 28 43 44 0
-57 27 29 43 45 0
-57 27 31 43 47 0
-57 28 30 44 46 0
-57 28 32 44 48 0
-57 29 30 45 46 0
-57 31 32 47 48 0
-57 33 37 49 53 0
-57 33 40 49 56 0
-57 34 38 50 54 0
-57 34 39 50 55 0
-57 35 36 51 52 0
-57 35 37 51 53 0
-57 35 39 51 55 0
-57 36 38 52 54 0
-57 36 40 52 56 0
-57 37 38 53 54 0
-57 39 40 55 56 0
-57 41 45 49 53 0
-57 41 48 49 56 0
-57 42 46 50 54 0
-57 42 47 50 55 0
-57 43 44 51 52 0
-57 43 45 51 53 0
-57 43 47 51 55 0
-57 44 46 52 54 0
-57 44 48 52 56 0
-57 45 46 53 54 0
-57 47 48 55 56 0
-58 -1 -3 -7 0
-58 -9 -11 -15 0
-58 -17 -19 -23 0
-58 -25 -27 -31 0
-58 -33 -35 -39 0
-58 -41 -43 -47 0
-58 -49 -51 -55 0
-58 -1 -3 -8 0
-58 -9 -11 -16 0
-58 -17 -19 -24 0
-58 -25 -27 -32 0
-58 -33 -35 -40 0
-58 -41 -43 -48 0
-58 -49 -51 -56 0
-58 -1 -4 -6 0
-58 -9 -12 -14 0
-58 -17 -20 -22 0
-58 -25 -28 -30 0
-58 -33 -36 -38 0
-58 -41 -44 -46 0
-58 -49 -52 -54 0
-58 -1 -4 -8 0
-58 -9 -12 -16 0
-58 -17 -20 -24 0
-58 -25 -28 -32 0
-58 -33 -36 -40 0
-58 -41 -44 -48 0
-58 -49 -52 -56 0
-58 -1 -6 -7 0
-58 -9 -14 -15 0
-58 -17 -22 -23 0
-58 -25 -30 -31 0
-58 -33 -38 -39 0
-58 -41 -46 -47 0
-58 -49 -54 -55 0
-58 -2 -3 -5 0
-58 -10 -11 -13 0
-58 -18 -19 -21 0
-58 -26 -27 -29 0
-58 -34 -35 -37 0
-58 -42 -43 -45 0
-58 -50 -51 -53 0
-58 -2 -3 -7 0
-58 -10 -11 -15 0
-58 -18 -19 -23 0
-58 -26 -27 -31 0
-58 -34 -35 -39 0
-58 -42 -43 -47 0
-58 -50 -51 -55 0
-58 -2 -4 -5 0
-58 -10 -12 -13 0
-58 -18 -20 -21 0
-58 -26 -28 -29 0
-58 -34 -36 -37 0
-58 -42 -44 -45 0
-58 -50 -52 -53 0
-58 -2 -4 -6 0
-58 -10 -12 -14 0
-58 -18 -20 -22 0
-58 -26 -28 -30 0
-58 -34 -36 -38 0
-58 -42 -44 -46 0
-58 -50 -52 -54 0
-58 -2 -6 -7 0
-58 -10 -14 -15 0
-58 -18 -22 -23 0
-58 -26 -30 -31 0
-58 -34 -38 -39 0
-58 -42 -46 -47 0
-58 -50 -54 -55 0
-58 -3 -5 -8 0
-58 -11 -13 -16 0
-58 -19 -21 -24 0
-58 -27 -29 -32 0
-58 -35 -37 -40 0
-58 -43 -45 -48 0
-58 -51 -53 -56 0
-58 -4 -5 -8 0
-58 -12 -13 -16 0
-58 -20 -21 -24 0
-58 -28 -29 -32 0
-58 -36 -37 -40 0
-58 -44 -45 -48 0
-58 -52 -53 -56 0
-58 -1 -3 -25 -27 0
-58 -1 -4 -25 -28 0
-58 -1 -6 -25 -30 0
-58 -1 -7 -25 -31 0
-58 -1 -8 -25 -32 0
-58 -2 -3 -26 -27 0
-58 -2 -4 -26 -28 0
-58 -2 -5 -26 -29 0
-58 -2 -6 -26 -30 0
-58 -2 -7 -26 -31 0
-58 -3 -5 -27 -29 0
-58 -3 -7 -27 -31 0
-58 -3 -8 -27 -32 0
-58 -4 -5 -28 -29 0
-58 -4 -6 -28 -30 0
-58 -4 -8 -28 -32 0
-58 -5 -8 -29 -32 0
-58 -6 -7 -30 -31 0
-58 -1 -3 -41 -43 0
-58 -1 -4 -41 -44 0
-58 -1 -6 -41 -46 0
-58 -1 -7 -41 -47 0
-58 -1 -8 -41 -48 0
-58 -2 -3 -42 -43 0
-58 -2 -4 -42 -44 0
-58 -2 -5 -42 -45 0
-58 -2 -6 -42 -46 0
-58 -2 -7 -42 -47 0
-58 -3 -5 -43 -45 0
-58 -3 -7 -43 -47 0
-58 -3 -8 -43 -48 0
-58 -4 -5 -44 -45 0
-58 -4 -6 -44 -46 0
-58 -4 -8 -44 -48 0
-58 -5 -8 -45 -48 0
-58 -6 -7 -46 -47 0
-58 -9 -11 -33 -35 0
-58 -9 -12 -33 -36 0
-58 -9 -14 -33 -38 0
-58 -9 -15 -33 -39 0
-58 -9 -16 -33 -40 0
-58 -10 -11 -34 -35 0
-58 -10 -12 -34 -36 0
-58 -10 -13 -34 -37 0
-58 -10 -14 -34 -38 0
-58 -10 -15 -34 -39 0
-58 -11 -13 -35 -37 0
-58 -11 -15 -35 -39 0
-58 -11 -16 -35 -40 0
-58 -12 -13 -36 -37 0
-58 -12 -14 -36 -38 0
-58 -12 -16 -36 -40 0
-58 -13 -16 -37 -40 0
-58 -14 -15 -38 -39 0
-58 -9 -11 -49 -51 0
-58 -9 -12 -49 -52 0
-58 -9 -14 -49 -54 0
-58 -9 -15 -49 -55 0
-58 -9 -16 -49 -56 0
-58 -10 -11 -50 -51 0
-58 -10 -12 -50 -52 0
-58 -10 -13 -50 -53 0
-58 -10 -14 -50 -54 0
-58 -10 -15 -50 -55 0
-58 -11 -13 -51 -53 0
-58 -11 -15 -51 -55 0
-58 -11 -16 -51 -56 0
-58 -12 -13 -52 -53 0
-58 -12 -14 -52 -54 0
-58 -12 -16 -52 -56 0
-58 -13 -16 -53 -56 0
-58 -14 -15 -54 -55 0
-58 -17 -19 -41 -43 0
-58 -17 -20 -41 -44 0
-58 -17 -22 -41 -46 0
-58 -17 -23 -41 -47 0
-58 -17 -24 -41 -48 0
-58 -18 -19 -42 -43 0
-58 -18 -20 -42 -44 0
-58 -18 -21 -42 -45 0
-58 -18 -22 -42 -46 0
-58 -18 -23 -42 -47 0
-58 -19 -21 -43 -45 0
-58 -19 -23 -43 -47 0
-58 -19 -24 -43 -48 0
-58 -20 -21 -44 -45 0
-58 -20 -22 -44 -46 0
-58 -20 -24 -44 -48 0
-58 -21 -24 -45 -48 0
-58 -22 -23 -46 -47 0
-58 -17 -19 -49 -51 0
-58 -17 -20 -49 -52 0
-58 -17 -22 -49 -54 0
-58 -17 -23 -49 -55 0
-58 -17 -24 -49 -56 0
-58 -18 -19 -50 -51 0
-58 -18 -20 -50 -52 0
-58 -18 -21 -50 -53 0
-58 -18 -22 -50 -54 0
-58 -18 -23 -50 -55 0
-58 -19 -21 -51 -53 0
-58 -19 -23 -51 -55 0
-58 -19 -24 -51 -56 0
-58 -20 -21 -52 -53 0
-58 -20 -22 -52 -54 0
-58 -20 -24 -52 -56 0
-58 -21 -24 -53 -56 0
-58 -22 -23 -54 -55 0
-58 -25 -27 -33 -35 0
-58 -25 -28 -33 -36 0
-58 -25 -30 -33 -38 0
-58 -25 -31 -33 -39 0
-58 -25 -32 -33 -40 0
-58 -26 -27 -34 -35 0
-58 -26 -28 -34 -36 0
-58 -26 -29 -34 -37 0
-58 -26 -30 -34 -38 0
-58 -26 -31 -34 -39 0
-58 -27 -29 -35 -37 0
-58 -27 -31 -35 -39 0
-58 -27 -32 -35 -40 0
-58 -28 -29 -36 -37 0
-58 -28 -30 -36 -38 0
-58 -28 -32 -36 -40 0
-58 -29 -32 -37 -40 0
-58 -30 -31 -38 -39 0
-58 -25 -27 -49 -51 0
-58 -25 -28 -49 -52 0
-58 -25 -30 -49 -54 0
-58 -25 -31 -49 -55 0
-58 -25 -32 -49 -56 0
-58 -26 -27 -50 -51 0
-58 -26 -28 -50 -52 0
-58 -26 -29 -50 -53 0
-58 -26 -30 -50 -54 0
-58 -26 -31 -50 -55 0
-58 -27 -29 -51 -53 0
-58 -27 -31 -51 -55 0
-58 -27 -32 -51 -56 0
-58 -28 -29 -52 -53 0
-58 -28 -30 -52 -54 0
-58 -28 -32 -52 -56 0
-58 -29 -32 -53 -56 0
-58 -30 -31 -54 -55 0
-58 -33 -35 -41 -43 0
-58 -33 -36 -41 -44 0
-58 -33 -38 -41 -46 0
-58 -33 -39 -41 -47 0
-58 -33 -40 -41 -48 0
-58 -34 -35 -42 -43 0
-58 -34 -36 -42 -44 0
-58 -34 -37 -42 -45 0
-58 -34 -38 -42 -46 0
-58 -34 -39 -42 -47 0
-58 -35 -37 -43 -45 0
-58 -35 -39 -43 -47 0
-58 -35 -40 -43 -48 0
-58 -36 -37 -44 -45 0
-58 -36 -38 -44 -46 0
-58 -36 -40 -44 -48 0
-58 -37 -40 -45 -48 0
-58 -38 -39 -46 -47 0
-58 1 9 17 0
-58 2 10 18 0
-58 3 11 19 0
-58 4 12 20 0
-58 5 13 21 0
-58 6 14 22 0
-58 7 15 23 0
-58 8 16 24 0
-58 1 17 33 0
-58 2 18 34 0
-58 3 19 35 0
-58 4 20 36 0
-58 5 21 37 0
-58 6 22 38 0
-58 7 23 39 0
-58 8 24 40 0
-58 1 33 49 0
-58 2 34 50 0
-58 3 35 51 0
-58 4 36 52 0
-58 5 37 53 0
-58 6 38 54 0
-58 7 39 55 0
-58 8 40 56 0
-58 9 17 25 0
-58 10 18 26 0
-58 11 19 27 0
-58 12 20 28 0
-58 13 21 29 0
-58 14 22 30 0
-58 15 23 31 0
-58 16 24 32 0
-58 9 25 41 0
-58 10 26 42 0
-58 11 27 43 0
-58 12 28 44 0
-58 13 29 45 0
-58 14 30 46 0
-58 15 31 47 0
-58 16 32 48 0
-58 1 2 9 10 0
-58 1 5 9 13 0
-58 2 8 10 16 0
-58 3 4 11 12 0
-58 3 6 11 14 0
-58 4 7 12 15 0
-58 5 6 13 14 0
-58 5 7 13 15 0
-58 6 8 14 16 0
-58 7 8 15 16 0
-58 1 2 17 18 0
-58 1 5 17 21 0
-58 2 8 18 24 0
-58 3 4 19 20 0
-58 3 6 19 22 0
-58 4 7 20 23 0
-58 5 6 21 22 0
-58 5 7 21 23 0
-58 6 8 22 24 0
-58 7 8 23 24 0
-58 1 2 33 34 0
-58 1 5 33 37 0
-58 2 8 34 40 0
-58 3 4 35 36 0
-58 3 6 35 38 0
-58 4 7 36 39 0
-58 5 6 37 38 0
-58 5 7 37 39 0
-58 6 8 38 40 0
-58 7 8 39 40 0
-58 1 2 49 50 0
-58 1 5 49 53 0
-58 2 8 50 56 0
-58 3 4 51 52 0
-58 3 6 51 54 0
-58 4 7 52 55 0
-58 5 6 53 54 0
-58 5 7 53 55 0
-58 6 8 54 56 0
-58 7 8 55 56 0
-58 9 10 17 18 0
-58 9 13 17 21 0
-58 10 16 18 24 0
-58 11 12 19 20 0
-58 11 14 19 22 0
-58 12 15 20 23 0
-58 13 14 21 22 0
-58 13 15 21 23 0
-58 14 16 22 24 0
-58 15 16 23 24 0
-58 9 10 25 26 0
-58 9 13 25 29 0
-58 10 16 26 32 0
-58 11 12 27 28 0
-58 11 14 27 30 0
-58 12 15 28 31 0
-58 13 14 29 30 0
-58 13 15 29 31 0
-58 14 16 30 32 0
-58 15 16 31 32 0
-58 9 10 41 42 0
-58 9 13 41 45 0
-58 10 16 42 48 0
-58 11 12 43 44 0
-58 11 14 43 46 0
-58 12 15 44 47 0
-58 13 14 45 46 0
-58 13 15 45 47 0
-58 14 16 46 48 0
-58 15 16 47 48 0
-58 17 18 25 26 0
-58 17 21 25 29 0
-58 18 24 26 32 0
-58 19 20 27 28 0
-58 19 22 27 30 0
-58 20 23 28 31 0
-58 21 22 29 30 0
-58 21 23 29 31 0
-58 22 24 30 32 0
-58 23 24 31 32 0
-58 17 18 33 34 0
-58 17 21 33 37 0
-58 18 24 34 40 0
-58 19 20 35 36 0
-58 19 22 35 38 0
-58 20 23 36 39 0
-58 21 22 37 38 0
-58 21 23 37 39 0
-58 22 24 38 40 0
-58 23 24 39 40 0
-58 25 26 41 42 0
-58 25 29 41 45 0
-58 26 32 42 48 0
-58 27 28 43 44 0
-58 27 30 43 46 0
-58 28 31 44 47 0
-58 29 30 45 46 0
-58 29 31 45 47 0
-58 30 32 46 48 0
-58 31 32 47 48 0
-58 33 34 49 50 0
-58 33 37 49 53 0
-58 34 40 50 56 0
-58 35 36 51 52 0
-58 35 38 51 54 0
-58 36 39 52 55 0
-58 37 38 53 54 0
-58 37 39 53 55 0
-58 38 40 54 56 0
-58 39 40 55 56 0
-58 41 42 49 50 0
-58 41 45 49 53 0
-58 42 48 50 56 0
-58 43 44 51 52 0
-58 43 46 51 54 0
-58 44 47 52 55 0
-58 45 46 53 54 0
-58 45 47 53 55 0
-58 46 48 54 56 0
-58 47 48 55 56 0
-59 -1 -5 -7 0
-59 -9 -13 -15 0
-59 -17 -21 -23 0
-59 -25 -29 -31 0
-59 -33 -37 -39 0
-59 -41 -45 -47 0
-59 -49 -53 -55 0
-59 -1 -6 -8 0
-59 -9 -14 -16 0
-59 -17 -22 -24 0
-59 -25 -30 -32 0
-59 -33 -38 -40 0
-59 -41 -46 -48 0
-59 -49 -54 -56 0
-59 -1 -7 -8 0
-59 -9 -15 -16 0
-59 -17 -23 -24 0
-59 -25 -31 -32 0
-59 -33 -39 -40 0
-59 -41 -47 -48 0
-59 -49 -55 -56 0
-59 -2 -3 -4 0
-59 -10 -11 -12 0
-59 -18 -19 -20 0
-59 -26 -27 -28 0
-59 -34 -35 -36 0
-59 -42 -43 -44 0
-59 -50 -51 -52 0
-59 -2 -4 -6 0
-59 -10 -12 -14 0
-59 -18 -20 -22 0
-59 -26 -28 -30 0
-59 -34 -36 -38 0
-59 -42 -44 -46 0
-59 -50 -52 -54 0
-59 -2 -6 -8 0
-59 -10 -14 -16 0
-59 -18 -22 -24 0
-59 -26 -30 -32 0
-59 -34 -38 -40 0
-59 -42 -46 -48 0
-59 -50 -54 -56 0
-59 -3 -4 -5 0
-59 -11 -12 -13 0
-59 -19 -20 -21 0
-59 -27 -28 -29 0
-59 -35 -36 -37 0
-59 -43 -44 -45 0
-59 -51 -52 -53 0
-59 -3 -5 -7 0
-59 -11 -13 -15 0
-59 -19 -21 -23 0
-59 -27 -29 -31 0
-59 -35 -37 -39 0
-59 -43 -45 -47 0
-59 -51 -53 -55 0
-59 -1 -5 -25 -29 0
-59 -1 -6 -25 -30 0
-59 -1 -7 -25 -31 0
-59 -1 -8 -25 -32 0
-59 -2 -3 -26 -27 0
-59 -2 -4 -26 -28 0
-59 -2 -6 -26 -30 0
-59 -2 -8 -26 -32 0
-59 -3 -4 -27 -28 0
-59 -3 -5 -27 -29 0
-59 -3 -7 -27 -31 0
-59 -4 -5 -28 -29 0
-59 -4 -6 -28 -30 0
-59 -5 -7 -29 -31 0
-59 -6 -8 -30 -32 0
-59 -7 -8 -31 -32 0
-59 -1 -5 -41 -45 0
-59 -1 -6 -41 -46 0
-59 -1 -7 -41 -47 0
-59 -1 -8 -41 -48 0
-59 -2 -3 -42 -43 0
-59 -2 -4 -42 -44 0
-59 -2 -6 -42 -46 0
-59 -2 -8 -42 -48 0
-59 -3 -4 -43 -44 0
-59 -3 -5 -43 -45 0
-59 -3 -7 -43 -47 0
-59 -4 -5 -44 -45 0
-59 -4 -6 -44 -46 0
-59 -5 -7 -45 -47 0
-59 -6 -8 -46 -48 0
-59 -7 -8 -47 -48 0
-59 -9 -13 -33 -37 0
-59 -9 -14 -33 -38 0
-59 -9 -15 -33 -39 0
-59 -9 -16 -33 -40 0
-59 -10 -11 -34 -35 0
-59 -10 -12 -34 -36 0
-59 -10 -14 -34 -38 0
-59 -10 -16 -34 -40 0
-59 -11 -12 -35 -36 0
-59 -11 -13 -35 -37 0
-59 -11 -15 -35 -39 0
-59 -12 -13 -36 -37 0
-59 -12 -14 -36 -38 0
-59 -13 -15 -37 -39 0
-59 -14 -16 -38 -40 0
-59 -15 -16 -39 -40 0
-59 -9 -13 -49 -53 0
-59 -9 -14 -49 -54 0
-59 -9 -15 -49 -55 0
-59 -9 -16 -49 -56 0
-59 -10 -11 -50 -51 0
-59 -10 -12 -50 -52 0
-59 -10 -14 -50 -54 0
-59 -10 -16 -50 -56 0
-59 -11 -12 -51 -52 0
-59 -11 -13 -51 -53 0
-59 -11 -15 -51 -55 0
-59 -12 -13 -52 -53 0
-59 -12 -14 -52 -54 0
-59 -13 -15 -53 -55 0
-59 -14 -16 -54 -56 0
-59 -15 -16 -55 -56 0
-59 -17 -21 -41 -45 0
-59 -17 -22 -41 -46 0
-59 -17 -23 -41 -47 0
-59 -17 -24 -41 -48 0
-59 -18 -19 -42 -43 0
-59 -18 -20 -42 -44 0
-59 -18 -22 -42 -46 0
-59 -18 -24 -42 -48 0
-59 -19 -20 -43 -44 0
-59 -19 -21 -43 -45 0
-59 -19 -23 -43 -47 0
-59 -20 -21 -44 -45 0
-59 -20 -22 -44 -46 0
-59 -21 -23 -45 -47 0
-59 -22 -24 -46 -48 0
-59 -23 -24 -47 -48 0
-59 -17 -21 -49 -53 0
-59 -17 -22 -49 -54 0
-59 -17 -23 -49 -55 0
-59 -17 -24 -49 -56 0
-59 -18 -19 -50 -51 0
-59 -18 -20 -50 -52 0
-59 -18 -22 -50 -54 0
-59 -18 -24 -50 -56 0
-59 -19 -20 -51 -52 0
-59 -19 -21 -51 -53 0
-59 -19 -23 -51 -55 0
-59 -20 -21 -52 -53 0
-59 -20 -22 -52 -54 0
-59 -21 -23 -53 -55 0
-59 -22 -24 -54 -56 0
-59 -23 -24 -55 -56 0
-59 -25 -29 -33 -37 0
-59 -25 -30 -33 -38 0
-59 -25 -31 -33 -39 0
-59 -25 -32 -33 -40 0
-59 -26 -27 -34 -35 0
-59 -26 -28 -34 -36 0
-59 -26 -30 -34 -38 0
-59 -26 -32 -34 -40 0
-59 -27 -28 -35 -36 0
-59 -27 -29 -35 -37 0
-59 -27 -31 -35 -39 0
-59 -28 -29 -36 -37 0
-59 -28 -30 -36 -38 0
-59 -29 -31 -37 -39 0
-59 -30 -32 -38 -40 0
-59 -31 -32 -39 -40 0
-59 -25 -29 -49 -53 0
-59 -25 -30 -49 -54 0
-59 -25 -31 -49 -55 0
-59 -25 -32 -49 -56 0
-59 -26 -27 -50 -51 0
-59 -26 -28 -50 -52 0
-59 -26 -30 -50 -54 0
-59 -26 -32 -50 -56 0
-59 -27 -28 -51 -52 0
-59 -27 -29 -51 -53 0
-59 -27 -31 -51 -55 0
-59 -28 -29 -52 -53 0
-59 -28 -30 -52 -54 0
-59 -29 -31 -53 -55 0
-59 -30 -32 -54 -56 0
-59 -31 -32 -55 -56 0
-59 -33 -37 -41 -45 0
-59 -33 -38 -41 -46 0
-59 -33 -39 -41 -47 0
-59 -33 -40 -41 -48 0
-59 -34 -35 -42 -43 0
-59 -34 -36 -42 -44 0
-59 -34 -38 -42 -46 0
-59 -34 -40 -42 -48 0
-59 -35 -36 -43 -44 0
-59 -35 -37 -43 -45 0
-59 -35 -39 -43 -47 0
-59 -36 -37 -44 -45 0
-59 -36 -38 -44 -46 0
-59 -37 -39 -45 -47 0
-59 -38 -40 -46 -48 0
-59 -39 -40 -47 -48 0
-59 1 9 17 0
-59 2 10 18 0
-59 3 11 19 0
-59 4 12 20 0
-59 5 13 21 0
-59 6 14 22 0
-59 7 15 23 0
-59 8 16 24 0
-59 1 17 33 0
-59 2 18 34 0
-59 3 19 35 0
-59 4 20 36 0
-59 5 21 37 0
-59 6 22 38 0
-59 7 23 39 0
-59 8 24 40 0
-59 1 33 49 0
-59 2 34 50 0
-59 3 35 51 0
-59 4 36 52 0
-59 5 37 53 0
-59 6 38 54 0
-59 7 39 55 0
-59 8 40 56 0
-59 9 17 25 0
-59 10 18 26 0
-59 11 19 27 0
-59 12 20 28 0
-59 13 21 29 0
-59 14 22 30 0
-59 15 23 31 0
-59 16 24 32 0
-59 9 25 41 0
-59 10 26 42 0
-59 11 27 43 0
-59 12 28 44 0
-59 13 29 45 0
-59 14 30 46 0
-59 15 31 47 0
-59 16 32 48 0
-59 1 2 9 10 0
-59 1 3 9 11 0
-59 1 4 9 12 0
-59 2 5 10 13 0
-59 2 7 10 15 0
-59 3 6 11 14 0
-59 3 8 11 16 0
-59 4 7 12 15 0
-59 4 8 12 16 0
-59 5 6 13 14 0
-59 5 8 13 16 0
-59 6 7 14 15 0
-59 1 2 17 18 0
-59 1 3 17 19 0
-59 1 4 17 20 0
-59 2 5 18 21 0
-59 2 7 18 23 0
-59 3 6 19 22 0
-59 3 8 19 24 0
-59 4 7 20 23 0
-59 4 8 20 24 0
-59 5 6 21 22 0
-59 5 8 21 24 0
-59 6 7 22 23 0
-59 1 2 33 34 0
-59 1 3 33 35 0
-59 1 4 33 36 0
-59 2 5 34 37 0
-59 2 7 34 39 0
-59 3 6 35 38 0
-59 3 8 35 40 0
-59 4 7 36 39 0
-59 4 8 36 40 0
-59 5 6 37 38 0
-59 5 8 37 40 0
-59 6 7 38 39 0
-59 1 2 49 50 0
-59 1 3 49 51 0
-59 1 4 49 52 0
-59 2 5 50 53 0
-59 2 7 50 55 0
-59 3 6 51 54 0
-59 3 8 51 56 0
-59 4 7 52 55 0
-59 4 8 52 56 0
-59 5 6 53 54 0
-59 5 8 53 56 0
-59 6 7 54 55 0
-59 9 10 17 18 0
-59 9 11 17 19 0
-59 9 12 17 20 0
-59 10 13 18 21 0
-59 10 15 18 23 0
-59 11 14 19 22 0
-59 11 16 19 24 0
-59 12 15 20 23 0
-59 12 16 20 24 0
-59 13 14 21 22 0
-59 13 16 21 24 0
-59 14 15 22 23 0
-59 9 10 25 26 0
-59 9 11 25 27 0
-59 9 12 25 28 0
-59 10 13 26 29 0
-59 10 15 26 31 0
-59 11 14 27 30 0
-59 11 16 27 32 0
-59 12 15 28 31 0
-59 12 16 28 32 0
-59 13 14 29 30 0
-59 13 16 29 32 0
-59 14 15 30 31 0
-59 9 10 41 42 0
-59 9 11 41 43 0
-59 9 12 41 44 0
-59 10 13 42 45 0
-59 10 15 42 47 0
-59 11 14 43 46 0
-59 11 16 43 48 0
-59 12 15 44 47 0
-59 12 16 44 48 0
-59 13 14 45 46 0
-59 13 16 45 48 0
-59 14 15 46 47 0
-59 17 18 25 26 0
-59 17 19 25 27 0
-59 17 20 25 28 0
-59 18 21 26 29 0
-59 18 23 26 31 0
-59 19 22 27 30 0
-59 19 24 27 32 0
-59 20 23 28 31 0
-59 20 24 28 32 0
-59 21 22 29 30 0
-59 21 24 29 32 0
-59 22 23 30 31 0
-59 17 18 33 34 0
-59 17 19 33 35 0
-59 17 20 33 36 0
-59 18 21 34 37 0
-59 18 23 34 39 0
-59 19 22 35 38 0
-59 19 24 35 40 0
-59 20 23 36 39 0
-59 20 24 36 40 0
-59 21 22 37 38 0
-59 21 24 37 40 0
-59 22 23 38 39 0
-59 25 26 41 42 0
-59 25 27 41 43 0
-59 25 28 41 44 0
-59 26 29 42 45 0
-59 26 31 42 47 0
-59 27 30 43 46 0
-59 27 32 43 48 0
-59 28 31 44 47 0
-59 28 32 44 48 0
-59 29 30 45 46 0
-59 29 32 45 48 0
-59 30 31 46 47 0
-59 33 34 49 50 0
-59 33 35 49 51 0
-59 33 36 49 52 0
-59 34 37 50 53 0
-59 34 39 50 55 0
-59 35 38 51 54 0
-59 35 40 51 56 0
-59 36 39 52 55 0
-59 36 40 52 56 0
-59 37 38 53 54 0
-59 37 40 53 56 0
-59 38 39 54 55 0
-59 41 42 49 50 0
-59 41 43 49 51 0
-59 41 44 49 52 0
-59 42 45 50 53 0
-59 42 47 50 55 0
-59 43 46 51 54 0
-59 43 48 51 56 0
-59 44 47 52 55 0
-59 44 48 52 56 0
-59 45 46 53 54 0
-59 45 48 53 56 0
-59 46 47 54 55 0
-60 -1 -2 -3 0
-60 -9 -10 -11 0
-60 -17 -18 -19 0
-60 -25 -26 -27 0
-60 -33 -34 -35 0
-60 -41 -42 -43 0
-60 -49 -50 -51 0
-60 -1 -2 -4 0
-60 -9 -10 -12 0
-60 -17 -18 -20 0
-60 -25 -26 -28 0
-60 -33 -34 -36 0
-60 -41 -42 -44 0
-60 -49 -50 -52 0
-60 -1 -3 -6 0
-60 -9 -11 -14 0
-60 -17 -19 -22 0
-60 -25 -27 -30 0
-60 -33 -35 -38 0
-60 -41 -43 -46 0
-60 -49 -51 -54 0
-60 -1 -4 -7 0
-60 -9 -12 -15 0
-60 -17 -20 -23 0
-60 -25 -28 -31 0
-60 -33 -36 -39 0
-60 -41 -44 -47 0
-60 -49 -52 -55 0
-60 -1 -6 -7 0
-60 -9 -14 -15 0
-60 -17 -22 -23 0
-60 -25 -30 -31 0
-60 -33 -38 -39 0
-60 -41 -46 -47 0
-60 -49 -54 -55 0
-60 -2 -3 -8 0
-60 -10 -11 -16 0
-60 -18 -19 -24 0
-60 -26 -27 -32 0
-60 -34 -35 -40 0
-60 -42 -43 -48 0
-60 -50 -51 -56 0
-60 -2 -4 -5 0
-60 -10 -12 -13 0
-60 -18 -20 -21 0
-60 -26 -28 -29 0
-60 -34 -36 -37 0
-60 -42 -44 -45 0
-60 -50 -52 -53 0
-60 -2 -5 -8 0
-60 -10 -13 -16 0
-60 -18 -21 -24 0
-60 -26 -29 -32 0
-60 -34 -37 -40 0
-60 -42 -45 -48 0
-60 -50 -53 -56 0
-60 -3 -6 -8 0
-60 -11 -14 -16 0
-60 -19 -22 -24 0
-60 -27 -30 -32 0
-60 -35 -38 -40 0
-60 -43 -46 -48 0
-60 -51 -54 -56 0
-60 -4 -5 -7 0
-60 -12 -13 -15 0
-60 -20 -21 -23 0
-60 -28 -29 -31 0
-60 -36 -37 -39 0
-60 -44 -45 -47 0
-60 -52 -53 -55 0
-60 -1 -2 -33 -34 0
-60 -1 -3 -33 -35 0
-60 -1 -4 -33 -36 0
-60 -1 -6 -33 -38 0
-60 -1 -7 -33 -39 0
-60 -2 -3 -34 -35 0
-60 -2 -4 -34 -36 0
-60 -2 -5 -34 -37 0
-60 -2 -8 -34 -40 0
-60 -3 -6 -35 -38 0
-60 -3 -8 -35 -40 0
-60 -4 -5 -36 -37 0
-60 -4 -7 -36 -39 0
-60 -5 -7 -37 -39 0
-60 -5 -8 -37 -40 0
-60 -6 -7 -38 -39 0
-60 -6 -8 -38 -40 0
-60 -9 -10 -17 -18 0
-60 -9 -11 -17 -19 0
-60 -9 -12 -17 -20 0
-60 -9 -14 -17 -22 0
-60 -9 -15 -17 -23 0
-60 -10 -11 -18 -19 0
-60 -10 -12 -18 -20 0
-60 -10 -13 -18 -21 0
-60 -10 -16 -18 -24 0
-60 -11 -14 -19 -22 0
-60 -11 -16 -19 -24 0
-60 -12 -13 -20 -21 0
-60 -12 -15 -20 -23 0
-60 -13 -15 -21 -23 0
-60 -13 -16 -21 -24 0
-60 -14 -15 -22 -23 0
-60 -14 -16 -22 -24 0
-60 -9 -10 -41 -42 0
-60 -9 -11 -41 -43 0
-60 -9 -12 -41 -44 0
-60 -9 -14 -41 -46 0
-60 -9 -15 -41 -47 0
-60 -10 -11 -42 -43 0
-60 -10 -12 -42 -44 0
-60 -10 -13 -42 -45 0
-60 -10 -16 -42 -48 0
-60 -11 -14 -43 -46 0
-60 -11 -16 -43 -48 0
-60 -12 -13 -44 -45 0
-60 -12 -15 -44 -47 0
-60 -13 -15 -45 -47 0
-60 -13 -16 -45 -48 0
-60 -14 -15 -46 -47 0
-60 -14 -16 -46 -48 0
-60 -17 -18 -49 -50 0
-60 -17 -19 -49 -51 0
-60 -17 -20 -49 -52 0
-60 -17 -22 -49 -54 0
-60 -17 -23 -49 -55 0
-60 -18 -19 -50 -51 0
-60 -18 -20 -50 -52 0
-60 -18 -21 -50 -53 0
-60 -18 -24 -50 -56 0
-60 -19 -22 -51 -54 0
-60 -19 -24 -51 -56 0
-60 -20 -21 -52 -53 0
-60 -20 -23 -52 -55 0
-60 -21 -23 -53 -55 0
-60 -21 -24 -53 -56 0
-60 -22 -23 -54 -55 0
-60 -22 -24 -54 -56 0
-60 -25 -26 -41 -42 0
-60 -25 -27 -41 -43 0
-60 -25 -28 -41 -44 0
-60 -25 -30 -41 -46 0
-60 -25 -31 -41 -47 0
-60 -26 -27 -42 -43 0
-60 -26 -28 -42 -44 0
-60 -26 -29 -42 -45 0
-60 -26 -32 -42 -48 0
-60 -27 -30 -43 -46 0
-60 -27 -32 -43 -48 0
-60 -28 -29 -44 -45 0
-60 -28 -31 -44 -47 0
-60 -29 -31 -45 -47 0
-60 -29 -32 -45 -48 0
-60 -30 -31 -46 -47 0
-60 -30 -32 -46 -48 0
-60 -25 -26 -49 -50 0
-60 -25 -27 -49 -51 0
-60 -25 -28 -49 -52 0
-60 -25 -30 -49 -54 0
-60 -25 -31 -49 -55 0
-60 -26 -27 -50 -51 0
-60 -26 -28 -50 -52 0
-60 -26 -29 -50 -53 0
-60 -26 -32 -50 -56 0
-60 -27 -30 -51 -54 0
-60 -27 -32 -51 -56 0
-60 -28 -29 -52 -53 0
-60 -28 -31 -52 -55 0
-60 -29 -31 -53 -55 0
-60 -29 -32 -53 -56 0
-60 -30 -31 -54 -55 0
-60 -30 -32 -54 -56 0
-60 -33 -34 -41 -42 0
-60 -33 -35 -41 -43 0
-60 -33 -36 -41 -44 0
-60 -33 -38 -41 -46 0
-60 -33 -39 -41 -47 0
-60 -34 -35 -42 -43 0
-60 -34 -36 -42 -44 0
-60 -34 -37 -42 -45 0
-60 -34 -40 -42 -48 0
-60 -35 -38 -43 -46 0
-60 -35 -40 -43 -48 0
-60 -36 -37 -44 -45 0
-60 -36 -39 -44 -47 0
-60 -37 -39 -45 -47 0
-60 -37 -40 -45 -48 0
-60 -38 -39 -46 -47 0
-60 -38 -40 -46 -48 0
-60 -33 -34 -49 -50 0
-60 -33 -35 -49 -51 0
-60 -33 -36 -49 -52 0
-60 -33 -38 -49 -54 0
-60 -33 -39 -49 -55 0
-60 -34 -35 -50 -51 0
-60 -34 -36 -50 -52 0
-60 -34 -37 -50 -53 0
-60 -34 -40 -50 -56 0
-60 -35 -38 -51 -54 0
-60 -35 -40 -51 -56 0
-60 -36 -37 -52 -53 0
-60 -36 -39 -52 -55 0
-60 -37 -39 -53 -55 0
-60 -37 -40 -53 -56 0
-60 -38 -39 -54 -55 0
-60 -38 -40 -54 -56 0
-60 1 9 25 0
-60 2 10 26 0
-60 3 11 27 0
-60 4 12 28 0
-60 5 13 29 0
-60 6 14 30 0
-60 7 15 31 0
-60 8 16 32 0
-60 1 9 49 0
-60 2 10 50 0
-60 3 11 51 0
-60 4 12 52 0
-60 5 13 53 0
-60 6 14 54 0
-60 7 15 55 0
-60 8 16 56 0
-60 1 17 25 0
-60 2 18 26 0
-60 3 19 27 0
-60 4 20 28 0
-60 5 21 29 0
-60 6 22 30 0
-60 7 23 31 0
-60 8 24 32 0
-60 1 17 41 0
-60 2 18 42 0
-60 3 19 43 0
-60 4 20 44 0
-60 5 21 45 0
-60 6 22 46 0
-60 7 23 47 0
-60 8 24 48 0
-60 1 41 49 0
-60 2 42 50 0
-60 3 43 51 0
-60 4 44 52 0
-60 5 45 53 0
-60 6 46 54 0
-60 7 47 55 0
-60 8 48 56 0
-60 9 25 33 0
-60 10 26 34 0
-60 11 27 35 0
-60 12 28 36 0
-60 13 29 37 0
-60 14 30 38 0
-60 15 31 39 0
-60 16 32 40 0
-60 17 25 33 0
-60 18 26 34 0
-60 19 27 35 0
-60 20 28 36 0
-60 21 29 37 0
-60 22 30 38 0
-60 23 31 39 0
-60 24 32 40 0
-60 1 5 9 13 0
-60 1 8 9 16 0
-60 2 6 10 14 0
-60 2 7 10 15 0
-60 3 4 11 12 0
-60 3 5 11 13 0
-60 3 7 11 15 0
-60 4 6 12 14 0
-60 4 8 12 16 0
-60 5 6 13 14 0
-60 7 8 15 16 0
-60 1 5 17 21 0
-60 1 8 17 24 0
-60 2 6 18 22 0
-60 2 7 18 23 0
-60 3 4 19 20 0
-60 3 5 19 21 0
-60 3 7 19 23 0
-60 4 6 20 22 0
-60 4 8 20 24 0
-60 5 6 21 22 0
-60 7 8 23 24 0
-60 1 5 25 29 0
-60 1 8 25 32 0
-60 2 6 26 30 0
-60 2 7 26 31 0
-60 3 4 27 28 0
-60 3 5 27 29 0
-60 3 7 27 31 0
-60 4 6 28 30 0
-60 4 8 28 32 0
-60 5 6 29 30 0
-60 7 8 31 32 0
-60 1 5 41 45 0
-60 1 8 41 48 0
-60 2 6 42 46 0
-60 2 7 42 47 0
-60 3 4 43 44 0
-60 3 5 43 45 0
-60 3 7 43 47 0
-60 4 6 44 46 0
-60 4 8 44 48 0
-60 5 6 45 46 0
-60 7 8 47 48 0
-60 1 5 49 53 0
-60 1 8 49 56 0
-60 2 6 50 54 0
-60 2 7 50 55 0
-60 3 4 51 52 0
-60 3 5 51 53 0
-60 3 7 51 55 0
-60 4 6 52 54 0
-60 4 8 52 56 0
-60 5 6 53 54 0
-60 7 8 55 56 0
-60 9 13 25 29 0
-60 9 16 25 32 0
-60 10 14 26 30 0
-60 10 15 26 31 0
-60 11 12 27 28 0
-60 11 13 27 29 0
-60 11 15 27 31 0
-60 12 14 28 30 0
-60 12 16 28 32 0
-60 13 14 29 30 0
-60 15 16 31 32 0
-60 9 13 33 37 0
-60 9 16 33 40 0
-60 10 14 34 38 0
-60 10 15 34 39 0
-60 11 12 35 36 0
-60 11 13 35 37 0
-60 11 15 35 39 0
-60 12 14 36 38 0
-60 12 16 36 40 0
-60 13 14 37 38 0
-60 15 16 39 40 0
-60 9 13 49 53 0
-60 9 16 49 56 0
-60 10 14 50 54 0
-60 10 15 50 55 0
-60 11 12 51 52 0
-60 11 13 51 53 0
-60 11 15 51 55 0
-60 12 14 52 54 0
-60 12 16 52 56 0
-60 13 14 53 54 0
-60 15 16 55 56 0
-60 17 21 25 29 0
-60 17 24 25 32 0
-60 18 22 26 30 0
-60 18 23 26 31 0
-60 19 20 27 28 0
-60 19 21 27 29 0
-60 19 23 27 31 0
-60 20 22 28 30 0
-60 20 24 28 32 0
-60 21 22 29 30 0
-60 23 24 31 32 0
-60 17 21 33 37 0
-60 17 24 33 40 0
-60 18 22 34 38 0
-60 18 23 34 39 0
-60 19 20 35 36 0
-60 19 21 35 37 0
-60 19 23 35 39 0
-60 20 22 36 38 0
-60 20 24 36 40 0
-60 21 22 37 38 0
-60 23 24 39 40 0
-60 17 21 41 45 0
-60 17 24 41 48 0
-60 18 22 42 46 0
-60 18 23 42 47 0
-60 19 20 43 44 0
-60 19 21 43 45 0
-60 19 23 43 47 0
-60 20 22 44 46 0
-60 20 24 44 48 0
-60 21 22 45 46 0
-60 23 24 47 48 0
-60 25 29 33 37 0
-60 25 32 33 40 0
-60 26 30 34 38 0
-60 26 31 34 39 0
-60 27 28 35 36 0
-60 27 29 35 37 0
-60 27 31 35 39 0
-60 28 30 36 38 0
-60 28 32 36 40 0
-60 29 30 37 38 0
-60 31 32 39 40 0
-60 41 45 49 53 0
-60 41 48 49 56 0
-60 42 46 50 54 0
-60 42 47 50 55 0
-60 43 44 51 52 0
-60 43 45 51 53 0
-60 43 47 51 55 0
-60 44 46 52 54 0
-60 44 48 52 56 0
-60 45 46 53 54 0
-60 47 48 55 56 0
-61 -1 -3 -7 0
-61 -9 -11 -15 0
-61 -17 -19 -23 0
-61 -25 -27 -31 0
-61 -33 -35 -39 0
-61 -41 -43 -47 0
-61 -49 -51 -55 0
-61 -1 -3 -8 0
-61 -9 -11 -16 0
-61 -17 -19 -24 0
-61 -25 -27 -32 0
-61 -33 -35 -40 0
-61 -41 -43 -48 0
-61 -49 -51 -56 0
-61 -1 -4 -6 0
-61 -9 -12 -14 0
-61 -17 -20 -22 0
-61 -25 -28 -30 0
-61 -33 -36 -38 0
-61 -41 -44 -46 0
-61 -49 -52 -54 0
-61 -1 -4 -8 0
-61 -9 -12 -16 0
-61 -17 -20 -24 0
-61 -25 -28 -32 0
-61 -33 -36 -40 0
-61 -41 -44 -48 0
-61 -49 -52 -56 0
-61 -1 -6 -7 0
-61 -9 -14 -15 0
-61 -17 -22 -23 0
-61 -25 -30 -31 0
-61 -33 -38 -39 0
-61 -41 -46 -47 0
-61 -49 -54 -55 0
-61 -2 -3 -5 0
-61 -10 -11 -13 0
-61 -18 -19 -21 0
-61 -26 -27 -29 0
-61 -34 -35 -37 0
-61 -42 -43 -45 0
-61 -50 -51 -53 0
-61 -2 -3 -7 0
-61 -10 -11 -15 0
-61 -18 -19 -23 0
-61 -26 -27 -31 0
-61 -34 -35 -39 0
-61 -42 -43 -47 0
-61 -50 -51 -55 0
-61 -2 -4 -5 0
-61 -10 -12 -13 0
-61 -18 -20 -21 0
-61 -26 -28 -29 0
-61 -34 -36 -37 0
-61 -42 -44 -45 0
-61 -50 -52 -53 0
-61 -2 -4 -6 0
-61 -10 -12 -14 0
-61 -18 -20 -22 0
-61 -26 -28 -30 0
-61 -34 -36 -38 0
-61 -42 -44 -46 0
-61 -50 -52 -54 0
-61 -2 -6 -7 0
-61 -10 -14 -15 0
-61 -18 -22 -23 0
-61 -26 -30 -31 0
-61 -34 -38 -39 0
-61 -42 -46 -47 0
-61 -50 -54 -55 0
-61 -3 -5 -8 0
-61 -11 -13 -16 0
-61 -19 -21 -24 0
-61 -27 -29 -32 0
-61 -35 -37 -40 0
-61 -43 -45 -48 0
-61 -51 -53 -56 0
-61 -4 -5 -8 0
-61 -12 -13 -16 0
-61 -20 -21 -24 0
-61 -28 -29 -32 0
-61 -36 -37 -40 0
-61 -44 -45 -48 0
-61 -52 -53 -56 0
-61 -1 -3 -33 -35 0
-61 -1 -4 -33 -36 0
-61 -1 -6 -33 -38 0
-61 -1 -7 -33 -39 0
-61 -1 -8 -33 -40 0
-61 -2 -3 -34 -35 0
-61 -2 -4 -34 -36 0
-61 -2 -5 -34 -37 0
-61 -2 -6 -34 -38 0
-61 -2 -7 -34 -39 0
-61 -3 -5 -35 -37 0
-61 -3 -7 -35 -39 0
-61 -3 -8 -35 -40 0
-61 -4 -5 -36 -37 0
-61 -4 -6 -36 -38 0
-61 -4 -8 -36 -40 0
-61 -5 -8 -37 -40 0
-61 -6 -7 -38 -39 0
-61 -9 -11 -17 -19 0
-61 -9 -12 -17 -20 0
-61 -9 -14 -17 -22 0
-61 -9 -15 -17 -23 0
-61 -9 -16 -17 -24 0
-61 -10 -11 -18 -19 0
-61 -10 -12 -18 -20 0
-61 -10 -13 -18 -21 0
-61 -10 -14 -18 -22 0
-61 -10 -15 -18 -23 0
-61 -11 -13 -19 -21 0
-61 -11 -15 -19 -23 0
-61 -11 -16 -19 -24 0
-61 -12 -13 -20 -21 0
-61 -12 -14 -20 -22 0
-61 -12 -16 -20 -24 0
-61 -13 -16 -21 -24 0
-61 -14 -15 -22 -23 0
-61 -9 -11 -41 -43 0
-61 -9 -12 -41 -44 0
-61 -9 -14 -41 -46 0
-61 -9 -15 -41 -47 0
-61 -9 -16 -41 -48 0
-61 -10 -11 -42 -43 0
-61 -10 -12 -42 -44 0
-61 -10 -13 -42 -45 0
-61 -10 -14 -42 -46 0
-61 -10 -15 -42 -47 0
-61 -11 -13 -43 -45 0
-61 -11 -15 -43 -47 0
-61 -11 -16 -43 -48 0
-61 -12 -13 -44 -45 0
-61 -12 -14 -44 -46 0
-61 -12 -16 -44 -48 0
-61 -13 -16 -45 -48 0
-61 -14 -15 -46 -47 0
-61 -17 -19 -49 -51 0
-61 -17 -20 -49 -52 0
-61 -17 -22 -49 -54 0
-61 -17 -23 -49 -55 0
-61 -17 -24 -49 -56 0
-61 -18 -19 -50 -51 0
-61 -18 -20 -50 -52 0
-61 -18 -21 -50 -53 0
-61 -18 -22 -50 -54 0
-61 -18 -23 -50 -55 0
-61 -19 -21 -51 -53 0
-61 -19 -23 -51 -55 0
-61 -19 -24 -51 -56 0
-61 -20 -21 -52 -53 0
-61 -20 -22 -52 -54 0
-61 -20 -24 -52 -56 0
-61 -21 -24 -53 -56 0
-61 -22 -23 -54 -55 0
-61 -25 -27 -41 -43 0
-61 -25 -28 -41 -44 0
-61 -25 -30 -41 -46 0
-61 -25 -31 -41 -47 0
-61 -25 -32 -41 -48 0
-61 -26 -27 -42 -43 0
-61 -26 -28 -42 -44 0
-61 -26 -29 -42 -45 0
-61 -26 -30 -42 -46 0
-61 -26 -31 -42 -47 0
-61 -27 -29 -43 -45 0
-61 -27 -31 -43 -47 0
-61 -27 -32 -43 -48 0
-61 -28 -29 -44 -45 0
-61 -28 -30 -44 -46 0
-61 -28 -32 -44 -48 0
-61 -29 -32 -45 -48 0
-61 -30 -31 -46 -47 0
-61 -25 -27 -49 -51 0
-61 -25 -28 -49 -52 0
-61 -25 -30 -49 -54 0
-61 -25 -31 -49 -55 0
-61 -25 -32 -49 -56 0
-61 -26 -27 -50 -51 0
-61 -26 -28 -50 -52 0
-61 -26 -29 -50 -53 0
-61 -26 -30 -50 -54 0
-61 -26 -31 -50 -55 0
-61 -27 -29 -51 -53 0
-61 -27 -31 -51 -55 0
-61 -27 -32 -51 -56 0
-61 -28 -29 -52 -53 0
-61 -28 -30 -52 -54 0
-61 -28 -32 -52 -56 0
-61 -29 -32 -53 -56 0
-61 -30 -31 -54 -55 0
-61 -33 -35 -41 -43 0
-61 -33 -36 -41 -44 0
-61 -33 -38 -41 -46 0
-61 -33 -39 -41 -47 0
-61 -33 -40 -41 -48 0
-61 -34 -35 -42 -43 0
-61 -34 -36 -42 -44 0
-61 -34 -37 -42 -45 0
-61 -34 -38 -42 -46 0
-61 -34 -39 -42 -47 0
-61 -35 -37 -43 -45 0
-61 -35 -39 -43 -47 0
-61 -35 -40 -43 -48 0
-61 -36 -37 -44 -45 0
-61 -36 -38 -44 -46 0
-61 -36 -40 -44 -48 0
-61 -37 -40 -45 -48 0
-61 -38 -39 -46 -47 0
-61 -33 -35 -49 -51 0
-61 -33 -36 -49 -52 0
-61 -33 -38 -49 -54 0
-61 -33 -39 -49 -55 0
-61 -33 -40 -49 -56 0
-61 -34 -35 -50 -51 0
-61 -34 -36 -50 -52 0
-61 -34 -37 -50 -53 0
-61 -34 -38 -50 -54 0
-61 -34 -39 -50 -55 0
-61 -35 -37 -51 -53 0
-61 -35 -39 -51 -55 0
-61 -35 -40 -51 -56 0
-61 -36 -37 -52 -53 0
-61 -36 -38 -52 -54 0
-61 -36 -40 -52 -56 0
-61 -37 -40 -53 -56 0
-61 -38 -39 -54 -55 0
-61 1 9 25 0
-61 2 10 26 0
-61 3 11 27 0
-61 4 12 28 0
-61 5 13 29 0
-61 6 14 30 0
-61 7 15 31 0
-61 8 16 32 0
-61 1 9 49 0
-61 2 10 50 0
-61 3 11 51 0
-61 4 12 52 0
-61 5 13 53 0
-61 6 14 54 0
-61 7 15 55 0
-61 8 16 56 0
-61 1 17 25 0
-61 2 18 26 0
-61 3 19 27 0
-61 4 20 28 0
-61 5 21 29 0
-61 6 22 30 0
-61 7 23 31 0
-61 8 24 32 0
-61 1 17 41 0
-61 2 18 42 0
-61 3 19 43 0
-61 4 20 44 0
-61 5 21 45 0
-61 6 22 46 0
-61 7 23 47 0
-61 8 24 48 0
-61 1 41 49 0
-61 2 42 50 0
-61 3 43 51 0
-61 4 44 52 0
-61 5 45 53 0
-61 6 46 54 0
-61 7 47 55 0
-61 8 48 56 0
-61 9 25 33 0
-61 10 26 34 0
-61 11 27 35 0
-61 12 28 36 0
-61 13 29 37 0
-61 14 30 38 0
-61 15 31 39 0
-61 16 32 40 0
-61 17 25 33 0
-61 18 26 34 0
-61 19 27 35 0
-61 20 28 36 0
-61 21 29 37 0
-61 22 30 38 0
-61 23 31 39 0
-61 24 32 40 0
-61 1 2 9 10 0
-61 1 5 9 13 0
-61 2 8 10 16 0
-61 3 4 11 12 0
-61 3 6 11 14 0
-61 4 7 12 15 0
-61 5 6 13 14 0
-61 5 7 13 15 0
-61 6 8 14 16 0
-61 7 8 15 16 0
-61 1 2 17 18 0
-61 1 5 17 21 0
-61 2 8 18 24 0
-61 3 4 19 20 0
-61 3 6 19 22 0
-61 4 7 20 23 0
-61 5 6 21 22 0
-61 5 7 21 23 0
-61 6 8 22 24 0
-61 7 8 23 24 0
-61 1 2 25 26 0
-61 1 5 25 29 0
-61 2 8 26 32 0
-61 3 4 27 28 0
-61 3 6 27 30 0
-61 4 7 28 31 0
-61 5 6 29 30 0
-61 5 7 29 31 0
-61 6 8 30 32 0
-61 7 8 31 32 0
-61 1 2 41 42 0
-61 1 5 41 45 0
-61 2 8 42 48 0
-61 3 4 43 44 0
-61 3 6 43 46 0
-61 4 7 44 47 0
-61 5 6 45 46 0
-61 5 7 45 47 0
-61 6 8 46 48 0
-61 7 8 47 48 0
-61 1 2 49 50 0
-61 1 5 49 53 0
-61 2 8 50 56 0
-61 3 4 51 52 0
-61 3 6 51 54 0
-61 4 7 52 55 0
-61 5 6 53 54 0
-61 5 7 53 55 0
-61 6 8 54 56 0
-61 7 8 55 56 0
-61 9 10 25 26 0
-61 9 13 25 29 0
-61 10 16 26 32 0
-61 11 12 27 28 0
-61 11 14 27 30 0
-61 12 15 28 31 0
-61 13 14 29 30 0
-61 13 15 29 31 0
-61 14 16 30 32 0
-61 15 16 31 32 0
-61 9 10 33 34 0
-61 9 13 33 37 0
-61 10 16 34 40 0
-61 11 12 35 36 0
-61 11 14 35 38 0
-61 12 15 36 39 0
-61 13 14 37 38 0
-61 13 15 37 39 0
-61 14 16 38 40 0
-61 15 16 39 40 0
-61 9 10 49 50 0
-61 9 13 49 53 0
-61 10 16 50 56 0
-61 11 12 51 52 0
-61 11 14 51 54 0
-61 12 15 52 55 0
-61 13 14 53 54 0
-61 13 15 53 55 0
-61 14 16 54 56 0
-61 15 16 55 56 0
-61 17 18 25 26 0
-61 17 21 25 29 0
-61 18 24 26 32 0
-61 19 20 27 28 0
-61 19 22 27 30 0
-61 20 23 28 31 0
-61 21 22 29 30 0
-61 21 23 29 31 0
-61 22 24 30 32 0
-61 23 24 31 32 0
-61 17 18 33 34 0
-61 17 21 33 37 0
-61 18 24 34 40 0
-61 19 20 35 36 0
-61 19 22 35 38 0
-61 20 23 36 39 0
-61 21 22 37 38 0
-61 21 23 37 39 0
-61 22 24 38 40 0
-61 23 24 39 40 0
-61 17 18 41 42 0
-61 17 21 41 45 0
-61 18 24 42 48 0
-61 19 20 43 44 0
-61 19 22 43 46 0
-61 20 23 44 47 0
-61 21 22 45 46 0
-61 21 23 45 47 0
-61 22 24 46 48 0
-61 23 24 47 48 0
-61 25 26 33 34 0
-61 25 29 33 37 0
-61 26 32 34 40 0
-61 27 28 35 36 0
-61 27 30 35 38 0
-61 28 31 36 39 0
-61 29 30 37 38 0
-61 29 31 37 39 0
-61 30 32 38 40 0
-61 31 32 39 40 0
-61 41 42 49 50 0
-61 41 45 49 53 0
-61 42 48 50 56 0
-61 43 44 51 52 0
-61 43 46 51 54 0
-61 44 47 52 55 0
-61 45 46 53 54 0
-61 45 47 53 55 0
-61 46 48 54 56 0
-61 47 48 55 56 0
-62 -1 -5 -7 0
-62 -9 -13 -15 0
-62 -17 -21 -23 0
-62 -25 -29 -31 0
-62 -33 -37 -39 0
-62 -41 -45 -47 0
-62 -49 -53 -55 0
-62 -1 -6 -8 0
-62 -9 -14 -16 0
-62 -17 -22 -24 0
-62 -25 -30 -32 0
-62 -33 -38 -40 0
-62 -41 -46 -48 0
-62 -49 -54 -56 0
-62 -1 -7 -8 0
-62 -9 -15 -16 0
-62 -17 -23 -24 0
-62 -25 -31 -32 0
-62 -33 -39 -40 0
-62 -41 -47 -48 0
-62 -49 -55 -56 0
-62 -2 -3 -4 0
-62 -10 -11 -12 0
-62 -18 -19 -20 0
-62 -26 -27 -28 0
-62 -34 -35 -36 0
-62 -42 -43 -44 0
-62 -50 -51 -52 0
-62 -2 -4 -6 0
-62 -10 -12 -14 0
-62 -18 -20 -22 0
-62 -26 -28 -30 0
-62 -34 -36 -38 0
-62 -42 -44 -46 0
-62 -50 -52 -54 0
-62 -2 -6 -8 0
-62 -10 -14 -16 0
-62 -18 -22 -24 0
-62 -26 -30 -32 0
-62 -34 -38 -40 0
-62 -42 -46 -48 0
-62 -50 -54 -56 0
-62 -3 -4 -5 0
-62 -11 -12 -13 0
-62 -19 -20 -21 0
-62 -27 -28 -29 0
-62 -35 -36 -37 0
-62 -43 -44 -45 0
-62 -51 -52 -53 0
-62 -3 -5 -7 0
-62 -11 -13 -15 0
-62 -19 -21 -23 0
-62 -27 -29 -31 0
-62 -35 -37 -39 0
-62 -43 -45 -47 0
-62 -51 -53 -55 0
-62 -1 -5 -33 -37 0
-62 -1 -6 -33 -38 0
-62 -1 -7 -33 -39 0
-62 -1 -8 -33 -40 0
-62 -2 -3 -34 -35 0
-62 -2 -4 -34 -36 0
-62 -2 -6 -34 -38 0
-62 -2 -8 -34 -40 0
-62 -3 -4 -35 -36 0
-62 -3 -5 -35 -37 0
-62 -3 -7 -35 -39 0
-62 -4 -5 -36 -37 0
-62 -4 -6 -36 -38 0
-62 -5 -7 -37 -39 0
-62 -6 -8 -38 -40 0
-62 -7 -8 -39 -40 0
-62 -9 -13 -17 -21 0
-62 -9 -14 -17 -22 0
-62 -9 -15 -17 -23 0
-62 -9 -16 -17 -24 0
-62 -10 -11 -18 -19 0
-62 -10 -12 -18 -20 0
-62 -10 -14 -18 -22 0
-62 -10 -16 -18 -24 0
-62 -11 -12 -19 -20 0
-62 -11 -13 -19 -21 0
-62 -11 -15 -19 -23 0
-62 -12 -13 -20 -21 0
-62 -12 -14 -20 -22 0
-62 -13 -15 -21 -23 0
-62 -14 -16 -22 -24 0
-62 -15 -16 -23 -24 0
-62 -9 -13 -41 -45 0
-62 -9 -14 -41 -46 0
-62 -9 -15 -41 -47 0
-62 -9 -16 -41 -48 0
-62 -10 -11 -42 -43 0
-62 -10 -12 -42 -44 0
-62 -10 -14 -42 -46 0
-62 -10 -16 -42 -48 0
-62 -11 -12 -43 -44 0
-62 -11 -13 -43 -45 0
-62 -11 -15 -43 -47 0
-62 -12 -13 -44 -45 0
-62 -12 -14 -44 -46 0
-62 -13 -15 -45 -47 0
-62 -14 -16 -46 -48 0
-62 -15 -16 -47 -48 0
-62 -17 -21 -49 -53 0
-62 -17 -22 -49 -54 0
-62 -17 -23 -49 -55 0
-62 -17 -24 -49 -56 0
-62 -18 -19 -50 -51 0
-62 -18 -20 -50 -52 0
-62 -18 -22 -50 -54 0
-62 -18 -24 -50 -56 0
-62 -19 -20 -51 -52 0
-62 -19 -21 -51 -53 0
-62 -19 -23 -51 -55 0
-62 -20 -21 -52 -53 0
-62 -20 -22 -52 -54 0
-62 -21 -23 -53 -55 0
-62 -22 -24 -54 -56 0
-62 -23 -24 -55 -56 0
-62 -25 -29 -41 -45 0
-62 -25 -30 -41 -46 0
-62 -25 -31 -41 -47 0
-62 -25 -32 -41 -48 0
-62 -26 -27 -42 -43 0
-62 -26 -28 -42 -44 0
-62 -26 -30 -42 -46 0
-62 -26 -32 -42 -48 0
-62 -27 -28 -43 -44 0
-62 -27 -29 -43 -45 0
-62 -27 -31 -43 -47 0
-62 -28 -29 -44 -45 0
-62 -28 -30 -44 -46 0
-62 -29 -31 -45 -47 0
-62 -30 -32 -46 -48 0
-62 -31 -32 -47 -48 0
-62 -25 -29 -49 -53 0
-62 -25 -30 -49 -54 0
-62 -25 -31 -49 -55 0
-62 -25 -32 -49 -56 0
-62 -26 -27 -50 -51 0
-62 -26 -28 -50 -52 0
-62 -26 -30 -50 -54 0
-62 -26 -32 -50 -56 0
-62 -27 -28 -51 -52 0
-62 -27 -29 -51 -53 0
-62 -27 -31 -51 -55 0
-62 -28 -29 -52 -53 0
-62 -28 -30 -52 -54 0
-62 -29 -31 -53 -55 0
-62 -30 -32 -54 -56 0
-62 -31 -32 -55 -56 0
-62 -33 -37 -41 -45 0
-62 -33 -38 -41 -46 0
-62 -33 -39 -41 -47 0
-62 -33 -40 -41 -48 0
-62 -34 -35 -42 -43 0
-62 -34 -36 -42 -44 0
-62 -34 -38 -42 -46 0
-62 -34 -40 -42 -48 0
-62 -35 -36 -43 -44 0
-62 -35 -37 -43 -45 0
-62 -35 -39 -43 -47 0
-62 -36 -37 -44 -45 0
-62 -36 -38 -44 -46 0
-62 -37 -39 -45 -47 0
-62 -38 -40 -46 -48 0
-62 -39 -40 -47 -48 0
-62 -33 -37 -49 -53 0
-62 -33 -38 -49 -54 0
-62 -33 -39 -49 -55 0
-62 -33 -40 -49 -56 0
-62 -34 -35 -50 -51 0
-62 -34 -36 -50 -52 0
-62 -34 -38 -50 -54 0
-62 -34 -40 -50 -56 0
-62 -35 -36 -51 -52 0
-62 -35 -37 -51 -53 0
-62 -35 -39 -51 -55 0
-62 -36 -37 -52 -53 0
-62 -36 -38 -52 -54 0
-62 -37 -39 -53 -55 0
-62 -38 -40 -54 -56 0
-62 -39 -40 -55 -56 0
-62 1 9 25 0
-62 2 10 26 0
-62 3 11 27 0
-62 4 12 28 0
-62 5 13 29 0
-62 6 14 30 0
-62 7 15 31 0
-62 8 16 32 0
-62 1 9 49 0
-62 2 10 50 0
-62 3 11 51 0
-62 4 12 52 0
-62 5 13 53 0
-62 6 14 54 0
-62 7 15 55 0
-62 8 16 56 0
-62 1 17 25 0
-62 2 18 26 0
-62 3 19 27 0
-62 4 20 28 0
-62 5 21 29 0
-62 6 22 30 0
-62 7 23 31 0
-62 8 24 32 0
-62 1 17 41 0
-62 2 18 42 0
-62 3 19 43 0
-62 4 20 44 0
-62 5 21 45 0
-62 6 22 46 0
-62 7 23 47 0
-62 8 24 48 0
-62 1 41 49 0
-62 2 42 50 0
-62 3 43 51 0
-62 4 44 52 0
-62 5 45 53 0
-62 6 46 54 0
-62 7 47 55 0
-62 8 48 56 0
-62 9 25 33 0
-62 10 26 34 0
-62 11 27 35 0
-62 12 28 36 0
-62 13 29 37 0
-62 14 30 38 0
-62 15 31 39 0
-62 16 32 40 0
-62 17 25 33 0
-62 18 26 34 0
-62 19 27 35 0
-62 20 28 36 0
-62 21 29 37 0
-62 22 30 38 0
-62 23 31 39 0
-62 24 32 40 0
-62 1 2 9 10 0
-62 1 3 9 11 0
-62 1 4 9 12 0
-62 2 5 10 13 0
-62 2 7 10 15 0
-62 3 6 11 14 0
-62 3 8 11 16 0
-62 4 7 12 15 0
-62 4 8 12 16 0
-62 5 6 13 14 0
-62 5 8 13 16 0
-62 6 7 14 15 0
-62 1 2 17 18 0
-62 1 3 17 19 0
-62 1 4 17 20 0
-62 2 5 18 21 0
-62 2 7 18 23 0
-62 3 6 19 22 0
-62 3 8 19 24 0
-62 4 7 20 23 0
-62 4 8 20 24 0
-62 5 6 21 22 0
-62 5 8 21 24 0
-62 6 7 22 23 0
-62 1 2 25 26 0
-62 1 3 25 27 0
-62 1 4 25 28 0
-62 2 5 26 29 0
-62 2 7 26 31 0
-62 3 6 27 30 0
-62 3 8 27 32 0
-62 4 7 28 31 0
-62 4 8 28 32 0
-62 5 6 29 30 0
-62 5 8 29 32 0
-62 6 7 30 31 0
-62 1 2 41 42 0
-62 1 3 41 43 0
-62 1 4 41 44 0
-62 2 5 42 45 0
-62 2 7 42 47 0
-62 3 6 43 46 0
-62 3 8 43 48 0
-62 4 7 44 47 0
-62 4 8 44 48 0
-62 5 6 45 46 0
-62 5 8 45 48 0
-62 6 7 46 47 0
-62 1 2 49 50 0
-62 1 3 49 51 0
-62 1 4 49 52 0
-62 2 5 50 53 0
-62 2 7 50 55 0
-62 3 6 51 54 0
-62 3 8 51 56 0
-62 4 7 52 55 0
-62 4 8 52 56 0
-62 5 6 53 54 0
-62 5 8 53 56 0
-62 6 7 54 55 0
-62 9 10 25 26 0
-62 9 11 25 27 0
-62 9 12 25 28 0
-62 10 13 26 29 0
-62 10 15 26 31 0
-62 11 14 27 30 0
-62 11 16 27 32 0
-62 12 15 28 31 0
-62 12 16 28 32 0
-62 13 14 29 30 0
-62 13 16 29 32 0
-62 14 15 30 31 0
-62 9 10 33 34 0
-62 9 11 33 35 0
-62 9 12 33 36 0
-62 10 13 34 37 0
-62 10 15 34 39 0
-62 11 14 35 38 0
-62 11 16 35 40 0
-62 12 15 36 39 0
-62 12 16 36 40 0
-62 13 14 37 38 0
-62 13 16 37 40 0
-62 14 15 38 39 0
-62 9 10 49 50 0
-62 9 11 49 51 0
-62 9 12 49 52 0
-62 10 13 50 53 0
-62 10 15 50 55 0
-62 11 14 51 54 0
-62 11 16 51 56 0
-62 12 15 52 55 0
-62 12 16 52 56 0
-62 13 14 53 54 0
-62 13 16 53 56 0
-62 14 15 54 55 0
-62 17 18 25 26 0
-62 17 19 25 27 0
-62 17 20 25 28 0
-62 18 21 26 29 0
-62 18 23 26 31 0
-62 19 22 27 30 0
-62 19 24 27 32 0
-62 20 23 28 31 0
-62 20 24 28 32 0
-62 21 22 29 30 0
-62 21 24 29 32 0
-62 22 23 30 31 0
-62 17 18 33 34 0
-62 17 19 33 35 0
-62 17 20 33 36 0
-62 18 21 34 37 0
-62 18 23 34 39 0
-62 19 22 35 38 0
-62 19 24 35 40 0
-62 20 23 36 39 0
-62 20 24 36 40 0
-62 21 22 37 38 0
-62 21 24 37 40 0
-62 22 23 38 39 0
-62 17 18 41 42 0
-62 17 19 41 43 0
-62 17 20 41 44 0
-62 18 21 42 45 0
-62 18 23 42 47 0
-62 19 22 43 46 0
-62 19 24 43 48 0
-62 20 23 44 47 0
-62 20 24 44 48 0
-62 21 22 45 46 0
-62 21 24 45 48 0
-62 22 23 46 47 0
-62 25 26 33 34 0
-62 25 27 33 35 0
-62 25 28 33 36 0
-62 26 29 34 37 0
-62 26 31 34 39 0
-62 27 30 35 38 0
-62 27 32 35 40 0
-62 28 31 36 39 0
-62 28 32 36 40 0
-62 29 30 37 38 0
-62 29 32 37 40 0
-62 30 31 38 39 0
-62 41 42 49 50 0
-62 41 43 49 51 0
-62 41 44 49 52 0
-62 42 45 50 53 0
-62 42 47 50 55 0
-62 43 46 51 54 0
-62 43 48 51 56 0
-62 44 47 52 55 0
-62 44 48 52 56 0
-62 45 46 53 54 0
-62 45 48 53 56 0
-62 46 47 54 55 0
-63 -1 -2 -3 0
-63 -9 -10 -11 0
-63 -17 -18 -19 0
-63 -25 -26 -27 0
-63 -33 -34 -35 0
-63 -41 -42 -43 0
-63 -49 -50 -51 0
-63 -1 -2 -4 0
-63 -9 -10 -12 0
-63 -17 -18 -20 0
-63 -25 -26 -28 0
-63 -33 -34 -36 0
-63 -41 -42 -44 0
-63 -49 -50 -52 0
-63 -1 -3 -6 0
-63 -9 -11 -14 0
-63 -17 -19 -22 0
-63 -25 -27 -30 0
-63 -33 -35 -38 0
-63 -41 -43 -46 0
-63 -49 -51 -54 0
-63 -1 -4 -7 0
-63 -9 -12 -15 0
-63 -17 -20 -23 0
-63 -25 -28 -31 0
-63 -33 -36 -39 0
-63 -41 -44 -47 0
-63 -49 -52 -55 0
-63 -1 -6 -7 0
-63 -9 -14 -15 0
-63 -17 -22 -23 0
-63 -25 -30 -31 0
-63 -33 -38 -39 0
-63 -41 -46 -47 0
-63 -49 -54 -55 0
-63 -2 -3 -8 0
-63 -10 -11 -16 0
-63 -18 -19 -24 0
-63 -26 -27 -32 0
-63 -34 -35 -40 0
-63 -42 -43 -48 0
-63 -50 -51 -56 0
-63 -2 -4 -5 0
-63 -10 -12 -13 0
-63 -18 -20 -21 0
-63 -26 -28 -29 0
-63 -34 -36 -37 0
-63 -42 -44 -45 0
-63 -50 -52 -53 0
-63 -2 -5 -8 0
-63 -10 -13 -16 0
-63 -18 -21 -24 0
-63 -26 -29 -32 0
-63 -34 -37 -40 0
-63 -42 -45 -48 0
-63 -50 -53 -56 0
-63 -3 -6 -8 0
-63 -11 -14 -16 0
-63 -19 -22 -24 0
-63 -27 -30 -32 0
-63 -35 -38 -40 0
-63 -43 -46 -48 0
-63 -51 -54 -56 0
-63 -4 -5 -7 0
-63 -12 -13 -15 0
-63 -20 -21 -23 0
-63 -28 -29 -31 0
-63 -36 -37 -39 0
-63 -44 -45 -47 0
-63 -52 -53 -55 0
-63 -1 -2 -25 -26 0
-63 -1 -3 -25 -27 0
-63 -1 -4 -25 -28 0
-63 -1 -6 -25 -30 0
-63 -1 -7 -25 -31 0
-63 -2 -3 -26 -27 0
-63 -2 -4 -26 -28 0
-63 -2 -5 -26 -29 0
-63 -2 -8 -26 -32 0
-63 -3 -6 -27 -30 0
-63 -3 -8 -27 -32 0
-63 -4 -5 -28 -29 0
-63 -4 -7 -28 -31 0
-63 -5 -7 -29 -31 0
-63 -5 -8 -29 -32 0
-63 -6 -7 -30 -31 0
-63 -6 -8 -30 -32 0
-63 -1 -2 -33 -34 0
-63 -1 -3 -33 -35 0
-63 -1 -4 -33 -36 0
-63 -1 -6 -33 -38 0
-63 -1 -7 -33 -39 0
-63 -2 -3 -34 -35 0
-63 -2 -4 -34 -36 0
-63 -2 -5 -34 -37 0
-63 -2 -8 -34 -40 0
-63 -3 -6 -35 -38 0
-63 -3 -8 -35 -40 0
-63 -4 -5 -36 -37 0
-63 -4 -7 -36 -39 0
-63 -5 -7 -37 -39 0
-63 -5 -8 -37 -40 0
-63 -6 -7 -38 -39 0
-63 -6 -8 -38 -40 0
-63 -9 -10 -17 -18 0
-63 -9 -11 -17 -19 0
-63 -9 -12 -17 -20 0
-63 -9 -14 -17 -22 0
-63 -9 -15 -17 -23 0
-63 -10 -11 -18 -19 0
-63 -10 -12 -18 -20 0
-63 -10 -13 -18 -21 0
-63 -10 -16 -18 -24 0
-63 -11 -14 -19 -22 0
-63 -11 -16 -19 -24 0
-63 -12 -13 -20 -21 0
-63 -12 -15 -20 -23 0
-63 -13 -15 -21 -23 0
-63 -13 -16 -21 -24 0
-63 -14 -15 -22 -23 0
-63 -14 -16 -22 -24 0
-63 -9 -10 -41 -42 0
-63 -9 -11 -41 -43 0
-63 -9 -12 -41 -44 0
-63 -9 -14 -41 -46 0
-63 -9 -15 -41 -47 0
-63 -10 -11 -42 -43 0
-63 -10 -12 -42 -44 0
-63 -10 -13 -42 -45 0
-63 -10 -16 -42 -48 0
-63 -11 -14 -43 -46 0
-63 -11 -16 -43 -48 0
-63 -12 -13 -44 -45 0
-63 -12 -15 -44 -47 0
-63 -13 -15 -45 -47 0
-63 -13 -16 -45 -48 0
-63 -14 -15 -46 -47 0
-63 -14 -16 -46 -48 0
-63 -17 -18 -49 -50 0
-63 -17 -19 -49 -51 0
-63 -17 -20 -49 -52 0
-63 -17 -22 -49 -54 0
-63 -17 -23 -49 -55 0
-63 -18 -19 -50 -51 0
-63 -18 -20 -50 -52 0
-63 -18 -21 -50 -53 0
-63 -18 -24 -50 -56 0
-63 -19 -22 -51 -54 0
-63 -19 -24 -51 -56 0
-63 -20 -21 -52 -53 0
-63 -20 -23 -52 -55 0
-63 -21 -23 -53 -55 0
-63 -21 -24 -53 -56 0
-63 -22 -23 -54 -55 0
-63 -22 -24 -54 -56 0
-63 -25 -26 -41 -42 0
-63 -25 -27 -41 -43 0
-63 -25 -28 -41 -44 0
-63 -25 -30 -41 -46 0
-63 -25 -31 -41 -47 0
-63 -26 -27 -42 -43 0
-63 -26 -28 -42 -44 0
-63 -26 -29 -42 -45 0
-63 -26 -32 -42 -48 0
-63 -27 -30 -43 -46 0
-63 -27 -32 -43 -48 0
-63 -28 -29 -44 -45 0
-63 -28 -31 -44 -47 0
-63 -29 -31 -45 -47 0
-63 -29 -32 -45 -48 0
-63 -30 -31 -46 -47 0
-63 -30 -32 -46 -48 0
-63 -25 -26 -49 -50 0
-63 -25 -27 -49 -51 0
-63 -25 -28 -49 -52 0
-63 -25 -30 -49 -54 0
-63 -25 -31 -49 -55 0
-63 -26 -27 -50 -51 0
-63 -26 -28 -50 -52 0
-63 -26 -29 -50 -53 0
-63 -26 -32 -50 -56 0
-63 -27 -30 -51 -54 0
-63 -27 -32 -51 -56 0
-63 -28 -29 -52 -53 0
-63 -28 -31 -52 -55 0
-63 -29 -31 -53 -55 0
-63 -29 -32 -53 -56 0
-63 -30 -31 -54 -55 0
-63 -30 -32 -54 -56 0
-63 -33 -34 -41 -42 0
-63 -33 -35 -41 -43 0
-63 -33 -36 -41 -44 0
-63 -33 -38 -41 -46 0
-63 -33 -39 -41 -47 0
-63 -34 -35 -42 -43 0
-63 -34 -36 -42 -44 0
-63 -34 -37 -42 -45 0
-63 -34 -40 -42 -48 0
-63 -35 -38 -43 -46 0
-63 -35 -40 -43 -48 0
-63 -36 -37 -44 -45 0
-63 -36 -39 -44 -47 0
-63 -37 -39 -45 -47 0
-63 -37 -40 -45 -48 0
-63 -38 -39 -46 -47 0
-63 -38 -40 -46 -48 0
-63 -33 -34 -49 -50 0
-63 -33 -35 -49 -51 0
-63 -33 -36 -49 -52 0
-63 -33 -38 -49 -54 0
-63 -33 -39 -49 -55 0
-63 -34 -35 -50 -51 0
-63 -34 -36 -50 -52 0
-63 -34 -37 -50 -53 0
-63 -34 -40 -50 -56 0
-63 -35 -38 -51 -54 0
-63 -35 -40 -51 -56 0
-63 -36 -37 -52 -53 0
-63 -36 -39 -52 -55 0
-63 -37 -39 -53 -55 0
-63 -37 -40 -53 -56 0
-63 -38 -39 -54 -55 0
-63 -38 -40 -54 -56 0
-63 1 9 49 0
-63 2 10 50 0
-63 3 11 51 0
-63 4 12 52 0
-63 5 13 53 0
-63 6 14 54 0
-63 7 15 55 0
-63 8 16 56 0
-63 1 17 41 0
-63 2 18 42 0
-63 3 19 43 0
-63 4 20 44 0
-63 5 21 45 0
-63 6 22 46 0
-63 7 23 47 0
-63 8 24 48 0
-63 1 41 49 0
-63 2 42 50 0
-63 3 43 51 0
-63 4 44 52 0
-63 5 45 53 0
-63 6 46 54 0
-63 7 47 55 0
-63 8 48 56 0
-63 9 25 33 0
-63 10 26 34 0
-63 11 27 35 0
-63 12 28 36 0
-63 13 29 37 0
-63 14 30 38 0
-63 15 31 39 0
-63 16 32 40 0
-63 17 25 33 0
-63 18 26 34 0
-63 19 27 35 0
-63 20 28 36 0
-63 21 29 37 0
-63 22 30 38 0
-63 23 31 39 0
-63 24 32 40 0
-63 1 5 9 13 0
-63 1 8 9 16 0
-63 2 6 10 14 0
-63 2 7 10 15 0
-63 3 4 11 12 0
-63 3 5 11 13 0
-63 3 7 11 15 0
-63 4 6 12 14 0
-63 4 8 12 16 0
-63 5 6 13 14 0
-63 7 8 15 16 0
-63 1 5 17 21 0
-63 1 8 17 24 0
-63 2 6 18 22 0
-63 2 7 18 23 0
-63 3 4 19 20 0
-63 3 5 19 21 0
-63 3 7 19 23 0
-63 4 6 20 22 0
-63 4 8 20 24 0
-63 5 6 21 22 0
-63 7 8 23 24 0
-63 1 5 41 45 0
-63 1 8 41 48 0
-63 2 6 42 46 0
-63 2 7 42 47 0
-63 3 4 43 44 0
-63 3 5 43 45 0
-63 3 7 43 47 0
-63 4 6 44 46 0
-63 4 8 44 48 0
-63 5 6 45 46 0
-63 7 8 47 48 0
-63 1 5 49 53 0
-63 1 8 49 56 0
-63 2 6 50 54 0
-63 2 7 50 55 0
-63 3 4 51 52 0
-63 3 5 51 53 0
-63 3 7 51 55 0
-63 4 6 52 54 0
-63 4 8 52 56 0
-63 5 6 53 54 0
-63 7 8 55 56 0
-63 9 13 25 29 0
-63 9 16 25 32 0
-63 10 14 26 30 0
-63 10 15 26 31 0
-63 11 12 27 28 0
-63 11 13 27 29 0
-63 11 15 27 31 0
-63 12 14 28 30 0
-63 12 16 28 32 0
-63 13 14 29 30 0
-63 15 16 31 32 0
-63 9 13 33 37 0
-63 9 16 33 40 0
-63 10 14 34 38 0
-63 10 15 34 39 0
-63 11 12 35 36 0
-63 11 13 35 37 0
-63 11 15 35 39 0
-63 12 14 36 38 0
-63 12 16 36 40 0
-63 13 14 37 38 0
-63 15 16 39 40 0
-63 9 13 49 53 0
-63 9 16 49 56 0
-63 10 14 50 54 0
-63 10 15 50 55 0
-63 11 12 51 52 0
-63 11 13 51 53 0
-63 11 15 51 55 0
-63 12 14 52 54 0
-63 12 16 52 56 0
-63 13 14 53 54 0
-63 15 16 55 56 0
-63 17 21 25 29 0
-63 17 24 25 32 0
-63 18 22 26 30 0
-63 18 23 26 31 0
-63 19 20 27 28 0
-63 19 21 27 29 0
-63 19 23 27 31 0
-63 20 22 28 30 0
-63 20 24 28 32 0
-63 21 22 29 30 0
-63 23 24 31 32 0
-63 17 21 33 37 0
-63 17 24 33 40 0
-63 18 22 34 38 0
-63 18 23 34 39 0
-63 19 20 35 36 0
-63 19 21 35 37 0
-63 19 23 35 39 0
-63 20 22 36 38 0
-63 20 24 36 40 0
-63 21 22 37 38 0
-63 23 24 39 40 0
-63 17 21 41 45 0
-63 17 24 41 48 0
-63 18 22 42 46 0
-63 18 23 42 47 0
-63 19 20 43 44 0
-63 19 21 43 45 0
-63 19 23 43 47 0
-63 20 22 44 46 0
-63 20 24 44 48 0
-63 21 22 45 46 0
-63 23 24 47 48 0
-63 25 29 33 37 0
-63 25 32 33 40 0
-63 26 30 34 38 0
-63 26 31 34 39 0
-63 27 28 35 36 0
-63 27 29 35 37 0
-63 27 31 35 39 0
-63 28 30 36 38 0
-63 28 32 36 40 0
-63 29 30 37 38 0
-63 31 32 39 40 0
-63 41 45 49 53 0
-63 41 48 49 56 0
-63 42 46 50 54 0
-63 42 47 50 55 0
-63 43 44 51 52 0
-63 43 45 51 53 0
-63 43 47 51 55 0
-63 44 46 52 54 0
-63 44 48 52 56 0
-63 45 46 53 54 0
-63 47 48 55 56 0
-64 -1 -3 -7 0
-64 -9 -11 -15 0
-64 -17 -19 -23 0
-64 -25 -27 -31 0
-64 -33 -35 -39 0
-64 -41 -43 -47 0
-64 -49 -51 -55 0
-64 -1 -3 -8 0
-64 -9 -11 -16 0
-64 -17 -19 -24 0
-64 -25 -27 -32 0
-64 -33 -35 -40 0
-64 -41 -43 -48 0
-64 -49 -51 -56 0
-64 -1 -4 -6 0
-64 -9 -12 -14 0
-64 -17 -20 -22 0
-64 -25 -28 -30 0
-64 -33 -36 -38 0
-64 -41 -44 -46 0
-64 -49 -52 -54 0
-64 -1 -4 -8 0
-64 -9 -12 -16 0
-64 -17 -20 -24 0
-64 -25 -28 -32 0
-64 -33 -36 -40 0
-64 -41 -44 -48 0
-64 -49 -52 -56 0
-64 -1 -6 -7 0
-64 -9 -14 -15 0
-64 -17 -22 -23 0
-64 -25 -30 -31 0
-64 -33 -38 -39 0
-64 -41 -46 -47 0
-64 -49 -54 -55 0
-64 -2 -3 -5 0
-64 -10 -11 -13 0
-64 -18 -19 -21 0
-64 -26 -27 -29 0
-64 -34 -35 -37 0
-64 -42 -43 -45 0
-64 -50 -51 -53 0
-64 -2 -3 -7 0
-64 -10 -11 -15 0
-64 -18 -19 -23 0
-64 -26 -27 -31 0
-64 -34 -35 -39 0
-64 -42 -43 -47 0
-64 -50 -51 -55 0
-64 -2 -4 -5 0
-64 -10 -12 -13 0
-64 -18 -20 -21 0
-64 -26 -28 -29 0
-64 -34 -36 -37 0
-64 -42 -44 -45 0
-64 -50 -52 -53 0
-64 -2 -4 -6 0
-64 -10 -12 -14 0
-64 -18 -20 -22 0
-64 -26 -28 -30 0
-64 -34 -36 -38 0
-64 -42 -44 -46 0
-64 -50 -52 -54 0
-64 -2 -6 -7 0
-64 -10 -14 -15 0
-64 -18 -22 -23 0
-64 -26 -30 -31 0
-64 -34 -38 -39 0
-64 -42 -46 -47 0
-64 -50 -54 -55 0
-64 -3 -5 -8 0
-64 -11 -13 -16 0
-64 -19 -21 -24 0
-64 -27 -29 -32 0
-64 -35 -37 -40 0
-64 -43 -45 -48 0
-64 -51 -53 -56 0
-64 -4 -5 -8 0
-64 -12 -13 -16 0
-64 -20 -21 -24 0
-64 -28 -29 -32 0
-64 -36 -37 -40 0
-64 -44 -45 -48 0
-64 -52 -53 -56 0
-64 -1 -3 -25 -27 0
-64 -1 -4 -25 -28 0
-64 -1 -6 -25 -30 0
-64 -1 -7 -25 -31 0
-64 -1 -8 -25 -32 0
-64 -2 -3 -26 -27 0
-64 -2 -4 -26 -28 0
-64 -2 -5 -26 -29 0
-64 -2 -6 -26 -30 0
-64 -2 -7 -26 -31 0
-64 -3 -5 -27 -29 0
-64 -3 -7 -27 -31 0
-64 -3 -8 -27 -32 0
-64 -4 -5 -28 -29 0
-64 -4 -6 -28 -30 0
-64 -4 -8 -28 -32 0
-64 -5 -8 -29 -32 0
-64 -6 -7 -30 -31 0
-64 -1 -3 -33 -35 0
-64 -1 -4 -33 -36 0
-64 -1 -6 -33 -38 0
-64 -1 -7 -33 -39 0
-64 -1 -8 -33 -40 0
-64 -2 -3 -34 -35 0
-64 -2 -4 -34 -36 0
-64 -2 -5 -34 -37 0
-64 -2 -6 -34 -38 0
-64 -2 -7 -34 -39 0
-64 -3 -5 -35 -37 0
-64 -3 -7 -35 -39 0
-64 -3 -8 -35 -40 0
-64 -4 -5 -36 -37 0
-64 -4 -6 -36 -38 0
-64 -4 -8 -36 -40 0
-64 -5 -8 -37 -40 0
-64 -6 -7 -38 -39 0
-64 -9 -11 -17 -19 0
-64 -9 -12 -17 -20 0
-64 -9 -14 -17 -22 0
-64 -9 -15 -17 -23 0
-64 -9 -16 -17 -24 0
-64 -10 -11 -18 -19 0
-64 -10 -12 -18 -20 0
-64 -10 -13 -18 -21 0
-64 -10 -14 -18 -22 0
-64 -10 -15 -18 -23 0
-64 -11 -13 -19 -21 0
-64 -11 -15 -19 -23 0
-64 -11 -16 -19 -24 0
-64 -12 -13 -20 -21 0
-64 -12 -14 -20 -22 0
-64 -12 -16 -20 -24 0
-64 -13 -16 -21 -24 0
-64 -14 -15 -22 -23 0
-64 -9 -11 -41 -43 0
-64 -9 -12 -41 -44 0
-64 -9 -14 -41 -46 0
-64 -9 -15 -41 -47 0
-64 -9 -16 -41 -48 0
-64 -10 -11 -42 -43 0
-64 -10 -12 -42 -44 0
-64 -10 -13 -42 -45 0
-64 -10 -14 -42 -46 0
-64 -10 -15 -42 -47 0
-64 -11 -13 -43 -45 0
-64 -11 -15 -43 -47 0
-64 -11 -16 -43 -48 0
-64 -12 -13 -44 -45 0
-64 -12 -14 -44 -46 0
-64 -12 -16 -44 -48 0
-64 -13 -16 -45 -48 0
-64 -14 -15 -46 -47 0
-64 -17 -19 -49 -51 0
-64 -17 -20 -49 -52 0
-64 -17 -22 -49 -54 0
-64 -17 -23 -49 -55 0
-64 -17 -24 -49 -56 0
-64 -18 -19 -50 -51 0
-64 -18 -20 -50 -52 0
-64 -18 -21 -50 -53 0
-64 -18 -22 -50 -54 0
-64 -18 -23 -50 -55 0
-64 -19 -21 -51 -53 0
-64 -19 -23 -51 -55 0
-64 -19 -24 -51 -56 0
-64 -20 -21 -52 -53 0
-64 -20 -22 -52 -54 0
-64 -20 -24 -52 -56 0
-64 -21 -24 -53 -56 0
-64 -22 -23 -54 -55 0
-64 -25 -27 -41 -43 0
-64 -25 -28 -41 -44 0
-64 -25 -30 -41 -46 0
-64 -25 -31 -41 -47 0
-64 -25 -32 -41 -48 0
-64 -26 -27 -42 -43 0
-64 -26 -28 -42 -44 0
-64 -26 -29 -42 -45 0
-64 -26 -30 -42 -46 0
-64 -26 -31 -42 -47 0
-64 -27 -29 -43 -45 0
-64 -27 -31 -43 -47 0
-64 -27 -32 -43 -48 0
-64 -28 -29 -44 -45 0
-64 -28 -30 -44 -46 0
-64 -28 -32 -44 -48 0
-64 -29 -32 -45 -48 0
-64 -30 -31 -46 -47 0
-64 -25 -27 -49 -51 0
-64 -25 -28 -49 -52 0
-64 -25 -30 -49 -54 0
-64 -25 -31 -49 -55 0
-64 -25 -32 -49 -56 0
-64 -26 -27 -50 -51 0
-64 -26 -28 -50 -52 0
-64 -26 -29 -50 -53 0
-64 -26 -30 -50 -54 0
-64 -26 -31 -50 -55 0
-64 -27 -29 -51 -53 0
-64 -27 -31 -51 -55 0
-64 -27 -32 -51 -56 0
-64 -28 -29 -52 -53 0
-64 -28 -30 -52 -54 0
-64 -28 -32 -52 -56 0
-64 -29 -32 -53 -56 0
-64 -30 -31 -54 -55 0
-64 -33 -35 -41 -43 0
-64 -33 -36 -41 -44 0
-64 -33 -38 -41 -46 0
-64 -33 -39 -41 -47 0
-64 -33 -40 -41 -48 0
-64 -34 -35 -42 -43 0
-64 -34 -36 -42 -44 0
-64 -34 -37 -42 -45 0
-64 -34 -38 -42 -46 0
-64 -34 -39 -42 -47 0
-64 -35 -37 -43 -45 0
-64 -35 -39 -43 -47 0
-64 -35 -40 -43 -48 0
-64 -36 -37 -44 -45 0
-64 -36 -38 -44 -46 0
-64 -36 -40 -44 -48 0
-64 -37 -40 -45 -48 0
-64 -38 -39 -46 -47 0
-64 -33 -35 -49 -51 0
-64 -33 -36 -49 -52 0
-64 -33 -38 -49 -54 0
-64 -33 -39 -49 -55 0
-64 -33 -40 -49 -56 0
-64 -34 -35 -50 -51 0
-64 -34 -36 -50 -52 0
-64 -34 -37 -50 -53 0
-64 -34 -38 -50 -54 0
-64 -34 -39 -50 -55 0
-64 -35 -37 -51 -53 0
-64 -35 -39 -51 -55 0
-64 -35 -40 -51 -56 0
-64 -36 -37 -52 -53 0
-64 -36 -38 -52 -54 0
-64 -36 -40 -52 -56 0
-64 -37 -40 -53 -56 0
-64 -38 -39 -54 -55 0
-64 1 9 49 0
-64 2 10 50 0
-64 3 11 51 0
-64 4 12 52 0
-64 5 13 53 0
-64 6 14 54 0
-64 7 15 55 0
-64 8 16 56 0
-64 1 17 41 0
-64 2 18 42 0
-64 3 19 43 0
-64 4 20 44 0
-64 5 21 45 0
-64 6 22 46 0
-64 7 23 47 0
-64 8 24 48 0
-64 1 41 49 0
-64 2 42 50 0
-64 3 43 51 0
-64 4 44 52 0
-64 5 45 53 0
-64 6 46 54 0
-64 7 47 55 0
-64 8 48 56 0
-64 9 25 33 0
-64 10 26 34 0
-64 11 27 35 0
-64 12 28 36 0
-64 13 29 37 0
-64 14 30 38 0
-64 15 31 39 0
-64 16 32 40 0
-64 17 25 33 0
-64 18 26 34 0
-64 19 27 35 0
-64 20 28 36 0
-64 21 29 37 0
-64 22 30 38 0
-64 23 31 39 0
-64 24 32 40 0
-64 1 2 9 10 0
-64 1 5 9 13 0
-64 2 8 10 16 0
-64 3 4 11 12 0
-64 3 6 11 14 0
-64 4 7 12 15 0
-64 5 6 13 14 0
-64 5 7 13 15 0
-64 6 8 14 16 0
-64 7 8 15 16 0
-64 1 2 17 18 0
-64 1 5 17 21 0
-64 2 8 18 24 0
-64 3 4 19 20 0
-64 3 6 19 22 0
-64 4 7 20 23 0
-64 5 6 21 22 0
-64 5 7 21 23 0
-64 6 8 22 24 0
-64 7 8 23 24 0
-64 1 2 41 42 0
-64 1 5 41 45 0
-64 2 8 42 48 0
-64 3 4 43 44 0
-64 3 6 43 46 0
-64 4 7 44 47 0
-64 5 6 45 46 0
-64 5 7 45 47 0
-64 6 8 46 48 0
-64 7 8 47 48 0
-64 1 2 49 50 0
-64 1 5 49 53 0
-64 2 8 50 56 0
-64 3 4 51 52 0
-64 3 6 51 54 0
-64 4 7 52 55 0
-64 5 6 53 54 0
-64 5 7 53 55 0
-64 6 8 54 56 0
-64 7 8 55 56 0
-64 9 10 25 26 0
-64 9 13 25 29 0
-64 10 16 26 32 0
-64 11 12 27 28 0
-64 11 14 27 30 0
-64 12 15 28 31 0
-64 13 14 29 30 0
-64 13 15 29 31 0
-64 14 16 30 32 0
-64 15 16 31 32 0
-64 9 10 33 34 0
-64 9 13 33 37 0
-64 10 16 34 40 0
-64 11 12 35 36 0
-64 11 14 35 38 0
-64 12 15 36 39 0
-64 13 14 37 38 0
-64 13 15 37 39 0
-64 14 16 38 40 0
-64 15 16 39 40 0
-64 9 10 49 50 0
-64 9 13 49 53 0
-64 10 16 50 56 0
-64 11 12 51 52 0
-64 11 14 51 54 0
-64 12 15 52 55 0
-64 13 14 53 54 0
-64 13 15 53 55 0
-64 14 16 54 56 0
-64 15 16 55 56 0
-64 17 18 25 26 0
-64 17 21 25 29 0
-64 18 24 26 32 0
-64 19 20 27 28 0
-64 19 22 27 30 0
-64 20 23 28 31 0
-64 21 22 29 30 0
-64 21 23 29 31 0
-64 22 24 30 32 0
-64 23 24 31 32 0
-64 17 18 33 34 0
-64 17 21 33 37 0
-64 18 24 34 40 0
-64 19 20 35 36 0
-64 19 22 35 38 0
-64 20 23 36 39 0
-64 21 22 37 38 0
-64 21 23 37 39 0
-64 22 24 38 40 0
-64 23 24 39 40 0
-64 17 18 41 42 0
-64 17 21 41 45 0
-64 18 24 42 48 0
-64 19 20 43 44 0
-64 19 22 43 46 0
-64 20 23 44 47 0
-64 21 22 45 46 0
-64 21 23 45 47 0
-64 22 24 46 48 0
-64 23 24 47 48 0
-64 25 26 33 34 0
-64 25 29 33 37 0
-64 26 32 34 40 0
-64 27 28 35 36 0
-64 27 30 35 38 0
-64 28 31 36 39 0
-64 29 30 37 38 0
-64 29 31 37 39 0
-64 30 32 38 40 0
-64 31 32 39 40 0
-64 41 42 49 50 0
-64 41 45 49 53 0
-64 42 48 50 56 0
-64 43 44 51 52 0
-64 43 46 51 54 0
-64 44 47 52 55 0
-64 45 46 53 54 0
-64 45 47 53 55 0
-64 46 48 54 56 0
-64 47 48 55 56 0
-65 -1 -5 -7 0
-65 -9 -13 -15 0
-65 -17 -21 -23 0
-65 -25 -29 -31 0
-65 -33 -37 -39 0
-65 -41 -45 -47 0
-65 -49 -53 -55 0
-65 -1 -6 -8 0
-65 -9 -14 -16 0
-65 -17 -22 -24 0
-65 -25 -30 -32 0
-65 -33 -38 -40 0
-65 -41 -46 -48 0
-65 -49 -54 -56 0
-65 -1 -7 -8 0
-65 -9 -15 -16 0
-65 -17 -23 -24 0
-65 -25 -31 -32 0
-65 -33 -39 -40 0
-65 -41 -47 -48 0
-65 -49 -55 -56 0
-65 -2 -3 -4 0
-65 -10 -11 -12 0
-65 -18 -19 -20 0
-65 -26 -27 -28 0
-65 -34 -35 -36 0
-65 -42 -43 -44 0
-65 -50 -51 -52 0
-65 -2 -4 -6 0
-65 -10 -12 -14 0
-65 -18 -20 -22 0
-65 -26 -28 -30 0
-65 -34 -36 -38 0
-65 -42 -44 -46 0
-65 -50 -52 -54 0
-65 -2 -6 -8 0
-65 -10 -14 -16 0
-65 -18 -22 -24 0
-65 -26 -30 -32 0
-65 -34 -38 -40 0
-65 -42 -46 -48 0
-65 -50 -54 -56 0
-65 -3 -4 -5 0
-65 -11 -12 -13 0
-65 -19 -20 -21 0
-65 -27 -28 -29 0
-65 -35 -36 -37 0
-65 -43 -44 -45 0
-65 -51 -52 -53 0
-65 -3 -5 -7 0
-65 -11 -13 -15 0
-65 -19 -21 -23 0
-65 -27 -29 -31 0
-65 -35 -37 -39 0
-65 -43 -45 -47 0
-65 -51 -53 -55 0
-65 -1 -5 -25 -29 0
-65 -1 -6 -25 -30 0
-65 -1 -7 -25 -31 0
-65 -1 -8 -25 -32 0
-65 -2 -3 -26 -27 0
-65 -2 -4 -26 -28 0
-65 -2 -6 -26 -30 0
-65 -2 -8 -26 -32 0
-65 -3 -4 -27 -28 0
-65 -3 -5 -27 -29 0
-65 -3 -7 -27 -31 0
-65 -4 -5 -28 -29 0
-65 -4 -6 -28 -30 0
-65 -5 -7 -29 -31 0
-65 -6 -8 -30 -32 0
-65 -7 -8 -31 -32 0
-65 -1 -5 -33 -37 0
-65 -1 -6 -33 -38 0
-65 -1 -7 -33 -39 0
-65 -1 -8 -33 -40 0
-65 -2 -3 -34 -35 0
-65 -2 -4 -34 -36 0
-65 -2 -6 -34 -38 0
-65 -2 -8 -34 -40 0
-65 -3 -4 -35 -36 0
-65 -3 -5 -35 -37 0
-65 -3 -7 -35 -39 0
-65 -4 -5 -36 -37 0
-65 -4 -6 -36 -38 0
-65 -5 -7 -37 -39 0
-65 -6 -8 -38 -40 0
-65 -7 -8 -39 -40 0
-65 -9 -13 -17 -21 0
-65 -9 -14 -17 -22 0
-65 -9 -15 -17 -23 0
-65 -9 -16 -17 -24 0
-65 -10 -11 -18 -19 0
-65 -10 -12 -18 -20 0
-65 -10 -14 -18 -22 0
-65 -10 -16 -18 -24 0
-65 -11 -12 -19 -20 0
-65 -11 -13 -19 -21 0
-65 -11 -15 -19 -23 0
-65 -12 -13 -20 -21 0
-65 -12 -14 -20 -22 0
-65 -13 -15 -21 -23 0
-65 -14 -16 -22 -24 0
-65 -15 -16 -23 -24 0
-65 -9 -13 -41 -45 0
-65 -9 -14 -41 -46 0
-65 -9 -15 -41 -47 0
-65 -9 -16 -41 -48 0
-65 -10 -11 -42 -43 0
-65 -10 -12 -42 -44 0
-65 -10 -14 -42 -46 0
-65 -10 -16 -42 -48 0
-65 -11 -12 -43 -44 0
-65 -11 -13 -43 -45 0
-65 -11 -15 -43 -47 0
-65 -12 -13 -44 -45 0
-65 -12 -14 -44 -46 0
-65 -13 -15 -45 -47 0
-65 -14 -16 -46 -48 0
-65 -15 -16 -47 -48 0
-65 -17 -21 -49 -53 0
-65 -17 -22 -49 -54 0
-65 -17 -23 -49 -55 0
-65 -17 -24 -49 -56 0
-65 -18 -19 -50 -51 0
-65 -18 -20 -50 -52 0
-65 -18 -22 -50 -54 0
-65 -18 -24 -50 -56 0
-65 -19 -20 -51 -52 0
-65 -19 -21 -51 -53 0
-65 -19 -23 -51 -55 0
-65 -20 -21 -52 -53 0
-65 -20 -22 -52 -54 0
-65 -21 -23 -53 -55 0
-65 -22 -24 -54 -56 0
-65 -23 -24 -55 -56 0
-65 -25 -29 -41 -45 0
-65 -25 -30 -41 -46 0
-65 -25 -31 -41 -47 0
-65 -25 -32 -41 -48 0
-65 -26 -27 -42 -43 0
-65 -26 -28 -42 -44 0
-65 -26 -30 -42 -46 0
-65 -26 -32 -42 -48 0
-65 -27 -28 -43 -44 0
-65 -27 -29 -43 -45 0
-65 -27 -31 -43 -47 0
-65 -28 -29 -44 -45 0
-65 -28 -30 -44 -46 0
-65 -29 -31 -45 -47 0
-65 -30 -32 -46 -48 0
-65 -31 -32 -47 -48 0
-65 -25 -29 -49 -53 0
-65 -25 -30 -49 -54 0
-65 -25 -31 -49 -55 0
-65 -25 -32 -49 -56 0
-65 -26 -27 -50 -51 0
-65 -26 -28 -50 -52 0
-65 -26 -30 -50 -54 0
-65 -26 -32 -50 -56 0
-65 -27 -28 -51 -52 0
-65 -27 -29 -51 -53 0
-65 -27 -31 -51 -55 0
-65 -28 -29 -52 -53 0
-65 -28 -30 -52 -54 0
-65 -29 -31 -53 -55 0
-65 -30 -32 -54 -56 0
-65 -31 -32 -55 -56 0
-65 -33 -37 -41 -45 0
-65 -33 -38 -41 -46 0
-65 -33 -39 -41 -47 0
-65 -33 -40 -41 -48 0
-65 -34 -35 -42 -43 0
-65 -34 -36 -42 -44 0
-65 -34 -38 -42 -46 0
-65 -34 -40 -42 -48 0
-65 -35 -36 -43 -44 0
-65 -35 -37 -43 -45 0
-65 -35 -39 -43 -47 0
-65 -36 -37 -44 -45 0
-65 -36 -38 -44 -46 0
-65 -37 -39 -45 -47 0
-65 -38 -40 -46 -48 0
-65 -39 -40 -47 -48 0
-65 -33 -37 -49 -53 0
-65 -33 -38 -49 -54 0
-65 -33 -39 -49 -55 0
-65 -33 -40 -49 -56 0
-65 -34 -35 -50 -51 0
-65 -34 -36 -50 -52 0
-65 -34 -38 -50 -54 0
-65 -34 -40 -50 -56 0
-65 -35 -36 -51 -52 0
-65 -35 -37 -51 -53 0
-65 -35 -39 -51 -55 0
-65 -36 -37 -52 -53 0
-65 -36 -38 -52 -54 0
-65 -37 -39 -53 -55 0
-65 -38 -40 -54 -56 0
-65 -39 -40 -55 -56 0
-65 1 9 49 0
-65 2 10 50 0
-65 3 11 51 0
-65 4 12 52 0
-65 5 13 53 0
-65 6 14 54 0
-65 7 15 55 0
-65 8 16 56 0
-65 1 17 41 0
-65 2 18 42 0
-65 3 19 43 0
-65 4 20 44 0
-65 5 21 45 0
-65 6 22 46 0
-65 7 23 47 0
-65 8 24 48 0
-65 1 41 49 0
-65 2 42 50 0
-65 3 43 51 0
-65 4 44 52 0
-65 5 45 53 0
-65 6 46 54 0
-65 7 47 55 0
-65 8 48 56 0
-65 9 25 33 0
-65 10 26 34 0
-65 11 27 35 0
-65 12 28 36 0
-65 13 29 37 0
-65 14 30 38 0
-65 15 31 39 0
-65 16 32 40 0
-65 17 25 33 0
-65 18 26 34 0
-65 19 27 35 0
-65 20 28 36 0
-65 21 29 37 0
-65 22 30 38 0
-65 23 31 39 0
-65 24 32 40 0
-65 1 2 9 10 0
-65 1 3 9 11 0
-65 1 4 9 12 0
-65 2 5 10 13 0
-65 2 7 10 15 0
-65 3 6 11 14 0
-65 3 8 11 16 0
-65 4 7 12 15 0
-65 4 8 12 16 0
-65 5 6 13 14 0
-65 5 8 13 16 0
-65 6 7 14 15 0
-65 1 2 17 18 0
-65 1 3 17 19 0
-65 1 4 17 20 0
-65 2 5 18 21 0
-65 2 7 18 23 0
-65 3 6 19 22 0
-65 3 8 19 24 0
-65 4 7 20 23 0
-65 4 8 20 24 0
-65 5 6 21 22 0
-65 5 8 21 24 0
-65 6 7 22 23 0
-65 1 2 41 42 0
-65 1 3 41 43 0
-65 1 4 41 44 0
-65 2 5 42 45 0
-65 2 7 42 47 0
-65 3 6 43 46 0
-65 3 8 43 48 0
-65 4 7 44 47 0
-65 4 8 44 48 0
-65 5 6 45 46 0
-65 5 8 45 48 0
-65 6 7 46 47 0
-65 1 2 49 50 0
-65 1 3 49 51 0
-65 1 4 49 52 0
-65 2 5 50 53 0
-65 2 7 50 55 0
-65 3 6 51 54 0
-65 3 8 51 56 0
-65 4 7 52 55 0
-65 4 8 52 56 0
-65 5 6 53 54 0
-65 5 8 53 56 0
-65 6 7 54 55 0
-65 9 10 25 26 0
-65 9 11 25 27 0
-65 9 12 25 28 0
-65 10 13 26 29 0
-65 10 15 26 31 0
-65 11 14 27 30 0
-65 11 16 27 32 0
-65 12 15 28 31 0
-65 12 16 28 32 0
-65 13 14 29 30 0
-65 13 16 29 32 0
-65 14 15 30 31 0
-65 9 10 33 34 0
-65 9 11 33 35 0
-65 9 12 33 36 0
-65 10 13 34 37 0
-65 10 15 34 39 0
-65 11 14 35 38 0
-65 11 16 35 40 0
-65 12 15 36 39 0
-65 12 16 36 40 0
-65 13 14 37 38 0
-65 13 16 37 40 0
-65 14 15 38 39 0
-65 9 10 49 50 0
-65 9 11 49 51 0
-65 9 12 49 52 0
-65 10 13 50 53 0
-65 10 15 50 55 0
-65 11 14 51 54 0
-65 11 16 51 56 0
-65 12 15 52 55 0
-65 12 16 52 56 0
-65 13 14 53 54 0
-65 13 16 53 56 0
-65 14 15 54 55 0
-65 17 18 25 26 0
-65 17 19 25 27 0
-65 17 20 25 28 0
-65 18 21 26 29 0
-65 18 23 26 31 0
-65 19 22 27 30 0
-65 19 24 27 32 0
-65 20 23 28 31 0
-65 20 24 28 32 0
-65 21 22 29 30 0
-65 21 24 29 32 0
-65 22 23 30 31 0
-65 17 18 33 34 0
-65 17 19 33 35 0
-65 17 20 33 36 0
-65 18 21 34 37 0
-65 18 23 34 39 0
-65 19 22 35 38 0
-65 19 24 35 40 0
-65 20 23 36 39 0
-65 20 24 36 40 0
-65 21 22 37 38 0
-65 21 24 37 40 0
-65 22 23 38 39 0
-65 17 18 41 42 0
-65 17 19 41 43 0
-65 17 20 41 44 0
-65 18 21 42 45 0
-65 18 23 42 47 0
-65 19 22 43 46 0
-65 19 24 43 48 0
-65 20 23 44 47 0
-65 20 24 44 48 0
-65 21 22 45 46 0
-65 21 24 45 48 0
-65 22 23 46 47 0
-65 25 26 33 34 0
-65 25 27 33 35 0
-65 25 28 33 36 0
-65 26 29 34 37 0
-65 26 31 34 39 0
-65 27 30 35 38 0
-65 27 32 35 40 0
-65 28 31 36 39 0
-65 28 32 36 40 0
-65 29 30 37 38 0
-65 29 32 37 40 0
-65 30 31 38 39 0
-65 41 42 49 50 0
-65 41 43 49 51 0
-65 41 44 49 52 0
-65 42 45 50 53 0
-65 42 47 50 55 0
-65 43 46 51 54 0
-65 43 48 51 56 0
-65 44 47 52 55 0
-65 44 48 52 56 0
-65 45 46 53 54 0
-65 45 48 53 56 0
-65 46 47 54 55 0
-66 -1 -2 -3 0
-66 -9 -10 -11 0
-66 -17 -18 -19 0
-66 -25 -26 -27 0
-66 -33 -34 -35 0
-66 -41 -42 -43 0
-66 -49 -50 -51 0
-66 -1 -2 -4 0
-66 -9 -10 -12 0
-66 -17 -18 -20 0
-66 -25 -26 -28 0
-66 -33 -34 -36 0
-66 -41 -42 -44 0
-66 -49 -50 -52 0
-66 -1 -3 -6 0
-66 -9 -11 -14 0
-66 -17 -19 -22 0
-66 -25 -27 -30 0
-66 -33 -35 -38 0
-66 -41 -43 -46 0
-66 -49 -51 -54 0
-66 -1 -4 -7 0
-66 -9 -12 -15 0
-66 -17 -20 -23 0
-66 -25 -28 -31 0
-66 -33 -36 -39 0
-66 -41 -44 -47 0
-66 -49 -52 -55 0
-66 -1 -6 -7 0
-66 -9 -14 -15 0
-66 -17 -22 -23 0
-66 -25 -30 -31 0
-66 -33 -38 -39 0
-66 -41 -46 -47 0
-66 -49 -54 -55 0
-66 -2 -3 -8 0
-66 -10 -11 -16 0
-66 -18 -19 -24 0
-66 -26 -27 -32 0
-66 -34 -35 -40 0
-66 -42 -43 -48 0
-66 -50 -51 -56 0
-66 -2 -4 -5 0
-66 -10 -12 -13 0
-66 -18 -20 -21 0
-66 -26 -28 -29 0
-66 -34 -36 -37 0
-66 -42 -44 -45 0
-66 -50 -52 -53 0
-66 -2 -5 -8 0
-66 -10 -13 -16 0
-66 -18 -21 -24 0
-66 -26 -29 -32 0
-66 -34 -37 -40 0
-66 -42 -45 -48 0
-66 -50 -53 -56 0
-66 -3 -6 -8 0
-66 -11 -14 -16 0
-66 -19 -22 -24 0
-66 -27 -30 -32 0
-66 -35 -38 -40 0
-66 -43 -46 -48 0
-66 -51 -54 -56 0
-66 -4 -5 -7 0
-66 -12 -13 -15 0
-66 -20 -21 -23 0
-66 -28 -29 -31 0
-66 -36 -37 -39 0
-66 -44 -45 -47 0
-66 -52 -53 -55 0
-66 -1 -2 -9 -10 0
-66 -1 -3 -9 -11 0
-66 -1 -4 -9 -12 0
-66 -1 -6 -9 -14 0
-66 -1 -7 -9 -15 0
-66 -2 -3 -10 -11 0
-66 -2 -4 -10 -12 0
-66 -2 -5 -10 -13 0
-66 -2 -8 -10 -16 0
-66 -3 -6 -11 -14 0
-66 -3 -8 -11 -16 0
-66 -4 -5 -12 -13 0
-66 -4 -7 -12 -15 0
-66 -5 -7 -13 -15 0
-66 -5 -8 -13 -16 0
-66 -6 -7 -14 -15 0
-66 -6 -8 -14 -16 0
-66 -9 -10 -49 -50 0
-66 -9 -11 -49 -51 0
-66 -9 -12 -49 -52 0
-66 -9 -14 -49 -54 0
-66 -9 -15 -49 -55 0
-66 -10 -11 -50 -51 0
-66 -10 -12 -50 -52 0
-66 -10 -13 -50 -53 0
-66 -10 -16 -50 -56 0
-66 -11 -14 -51 -54 0
-66 -11 -16 -51 -56 0
-66 -12 -13 -52 -53 0
-66 -12 -15 -52 -55 0
-66 -13 -15 -53 -55 0
-66 -13 -16 -53 -56 0
-66 -14 -15 -54 -55 0
-66 -14 -16 -54 -56 0
-66 -17 -18 -33 -34 0
-66 -17 -19 -33 -35 0
-66 -17 -20 -33 -36 0
-66 -17 -22 -33 -38 0
-66 -17 -23 -33 -39 0
-66 -18 -19 -34 -35 0
-66 -18 -20 -34 -36 0
-66 -18 -21 -34 -37 0
-66 -18 -24 -34 -40 0
-66 -19 -22 -35 -38 0
-66 -19 -24 -35 -40 0
-66 -20 -21 -36 -37 0
-66 -20 -23 -36 -39 0
-66 -21 -23 -37 -39 0
-66 -21 -24 -37 -40 0
-66 -22 -23 -38 -39 0
-66 -22 -24 -38 -40 0
-66 -17 -18 -49 -50 0
-66 -17 -19 -49 -51 0
-66 -17 -20 -49 -52 0
-66 -17 -22 -49 -54 0
-66 -17 -23 -49 -55 0
-66 -18 -19 -50 -51 0
-66 -18 -20 -50 -52 0
-66 -18 -21 -50 -53 0
-66 -18 -24 -50 -56 0
-66 -19 -22 -51 -54 0
-66 -19 -24 -51 -56 0
-66 -20 -21 -52 -53 0
-66 -20 -23 -52 -55 0
-66 -21 -23 -53 -55 0
-66 -21 -24 -53 -56 0
-66 -22 -23 -54 -55 0
-66 -22 -24 -54 -56 0
-66 -25 -26 -41 -42 0
-66 -25 -27 -41 -43 0
-66 -25 -28 -41 -44 0
-66 -25 -30 -41 -46 0
-66 -25 -31 -41 -47 0
-66 -26 -27 -42 -43 0
-66 -26 -28 -42 -44 0
-66 -26 -29 -42 -45 0
-66 -26 -32 -42 -48 0
-66 -27 -30 -43 -46 0
-66 -27 -32 -43 -48 0
-66 -28 -29 -44 -45 0
-66 -28 -31 -44 -47 0
-66 -29 -31 -45 -47 0
-66 -29 -32 -45 -48 0
-66 -30 -31 -46 -47 0
-66 -30 -32 -46 -48 0
-66 -25 -26 -49 -50 0
-66 -25 -27 -49 -51 0
-66 -25 -28 -49 -52 0
-66 -25 -30 -49 -54 0
-66 -25 -31 -49 -55 0
-66 -26 -27 -50 -51 0
-66 -26 -28 -50 -52 0
-66 -26 -29 -50 -53 0
-66 -26 -32 -50 -56 0
-66 -27 -30 -51 -54 0
-66 -27 -32 -51 -56 0
-66 -28 -29 -52 -53 0
-66 -28 -31 -52 -55 0
-66 -29 -31 -53 -55 0
-66 -29 -32 -53 -56 0
-66 -30 -31 -54 -55 0
-66 -30 -32 -54 -56 0
-66 -33 -34 -41 -42 0
-66 -33 -35 -41 -43 0
-66 -33 -36 -41 -44 0
-66 -33 -38 -41 -46 0
-66 -33 -39 -41 -47 0
-66 -34 -35 -42 -43 0
-66 -34 -36 -42 -44 0
-66 -34 -37 -42 -45 0
-66 -34 -40 -42 -48 0
-66 -35 -38 -43 -46 0
-66 -35 -40 -43 -48 0
-66 -36 -37 -44 -45 0
-66 -36 -39 -44 -47 0
-66 -37 -39 -45 -47 0
-66 -37 -40 -45 -48 0
-66 -38 -39 -46 -47 0
-66 -38 -40 -46 -48 0
-66 1 17 25 0
-66 2 18 26 0
-66 3 19 27 0
-66 4 20 28 0
-66 5 21 29 0
-66 6 22 30 0
-66 7 23 31 0
-66 8 24 32 0
-66 1 17 41 0
-66 2 18 42 0
-66 3 19 43 0
-66 4 20 44 0
-66 5 21 45 0
-66 6 22 46 0
-66 7 23 47 0
-66 8 24 48 0
-66 1 25 33 0
-66 2 26 34 0
-66 3 27 35 0
-66 4 28 36 0
-66 5 29 37 0
-66 6 30 38 0
-66 7 31 39 0
-66 8 32 40 0
-66 1 33 49 0
-66 2 34 50 0
-66 3 35 51 0
-66 4 36 52 0
-66 5 37 53 0
-66 6 38 54 0
-66 7 39 55 0
-66 8 40 56 0
-66 1 41 49 0
-66 2 42 50 0
-66 3 43 51 0
-66 4 44 52 0
-66 5 45 53 0
-66 6 46 54 0
-66 7 47 55 0
-66 8 48 56 0
-66 9 17 25 0
-66 10 18 26 0
-66 11 19 27 0
-66 12 20 28 0
-66 13 21 29 0
-66 14 22 30 0
-66 15 23 31 0
-66 16 24 32 0
-66 9 17 41 0
-66 10 18 42 0
-66 11 19 43 0
-66 12 20 44 0
-66 13 21 45 0
-66 14 22 46 0
-66 15 23 47 0
-66 16 24 48 0
-66 9 25 33 0
-66 10 26 34 0
-66 11 27 35 0
-66 12 28 36 0
-66 13 29 37 0
-66 14 30 38 0
-66 15 31 39 0
-66 16 32 40 0
-66 1 5 17 21 0
-66 1 8 17 24 0
-66 2 6 18 22 0
-66 2 7 18 23 0
-66 3 4 19 20 0
-66 3 5 19 21 0
-66 3 7 19 23 0
-66 4 6 20 22 0
-66 4 8 20 24 0
-66 5 6 21 22 0
-66 7 8 23 24 0
-66 1 5 25 29 0
-66 1 8 25 32 0
-66 2 6 26 30 0
-66 2 7 26 31 0
-66 3 4 27 28 0
-66 3 5 27 29 0
-66 3 7 27 31 0
-66 4 6 28 30 0
-66 4 8 28 32 0
-66 5 6 29 30 0
-66 7 8 31 32 0
-66 1 5 33 37 0
-66 1 8 33 40 0
-66 2 6 34 38 0
-66 2 7 34 39 0
-66 3 4 35 36 0
-66 3 5 35 37 0
-66 3 7 35 39 0
-66 4 6 36 38 0
-66 4 8 36 40 0
-66 5 6 37 38 0
-66 7 8 39 40 0
-66 1 5 41 45 0
-66 1 8 41 48 0
-66 2 6 42 46 0
-66 2 7 42 47 0
-66 3 4 43 44 0
-66 3 5 43 45 0
-66 3 7 43 47 0
-66 4 6 44 46 0
-66 4 8 44 48 0
-66 5 6 45 46 0
-66 7 8 47 48 0
-66 1 5 49 53 0
-66 1 8 49 56 0
-66 2 6 50 54 0
-66 2 7 50 55 0
-66 3 4 51 52 0
-66 3 5 51 53 0
-66 3 7 51 55 0
-66 4 6 52 54 0
-66 4 8 52 56 0
-66 5 6 53 54 0
-66 7 8 55 56 0
-66 9 13 17 21 0
-66 9 16 17 24 0
-66 10 14 18 22 0
-66 10 15 18 23 0
-66 11 12 19 20 0
-66 11 13 19 21 0
-66 11 15 19 23 0
-66 12 14 20 22 0
-66 12 16 20 24 0
-66 13 14 21 22 0
-66 15 16 23 24 0
-66 9 13 25 29 0
-66 9 16 25 32 0
-66 10 14 26 30 0
-66 10 15 26 31 0
-66 11 12 27 28 0
-66 11 13 27 29 0
-66 11 15 27 31 0
-66 12 14 28 30 0
-66 12 16 28 32 0
-66 13 14 29 30 0
-66 15 16 31 32 0
-66 9 13 33 37 0
-66 9 16 33 40 0
-66 10 14 34 38 0
-66 10 15 34 39 0
-66 11 12 35 36 0
-66 11 13 35 37 0
-66 11 15 35 39 0
-66 12 14 36 38 0
-66 12 16 36 40 0
-66 13 14 37 38 0
-66 15 16 39 40 0
-66 9 13 41 45 0
-66 9 16 41 48 0
-66 10 14 42 46 0
-66 10 15 42 47 0
-66 11 12 43 44 0
-66 11 13 43 45 0
-66 11 15 43 47 0
-66 12 14 44 46 0
-66 12 16 44 48 0
-66 13 14 45 46 0
-66 15 16 47 48 0
-66 17 21 25 29 0
-66 17 24 25 32 0
-66 18 22 26 30 0
-66 18 23 26 31 0
-66 19 20 27 28 0
-66 19 21 27 29 0
-66 19 23 27 31 0
-66 20 22 28 30 0
-66 20 24 28 32 0
-66 21 22 29 30 0
-66 23 24 31 32 0
-66 17 21 41 45 0
-66 17 24 41 48 0
-66 18 22 42 46 0
-66 18 23 42 47 0
-66 19 20 43 44 0
-66 19 21 43 45 0
-66 19 23 43 47 0
-66 20 22 44 46 0
-66 20 24 44 48 0
-66 21 22 45 46 0
-66 23 24 47 48 0
-66 25 29 33 37 0
-66 25 32 33 40 0
-66 26 30 34 38 0
-66 26 31 34 39 0
-66 27 28 35 36 0
-66 27 29 35 37 0
-66 27 31 35 39 0
-66 28 30 36 38 0
-66 28 32 36 40 0
-66 29 30 37 38 0
-66 31 32 39 40 0
-66 33 37 49 53 0
-66 33 40 49 56 0
-66 34 38 50 54 0
-66 34 39 50 55 0
-66 35 36 51 52 0
-66 35 37 51 53 0
-66 35 39 51 55 0
-66 36 38 52 54 0
-66 36 40 52 56 0
-66 37 38 53 54 0
-66 39 40 55 56 0
-66 41 45 49 53 0
-66 41 48 49 56 0
-66 42 46 50 54 0
-66 42 47 50 55 0
-66 43 44 51 52 0
-66 43 45 51 53 0
-66 43 47 51 55 0
-66 44 46 52 54 0
-66 44 48 52 56 0
-66 45 46 53 54 0
-66 47 48 55 56 0
-67 -1 -3 -7 0
-67 -9 -11 -15 0
-67 -17 -19 -23 0
-67 -25 -27 -31 0
-67 -33 -35 -39 0
-67 -41 -43 -47 0
-67 -49 -51 -55 0
-67 -1 -3 -8 0
-67 -9 -11 -16 0
-67 -17 -19 -24 0
-67 -25 -27 -32 0
-67 -33 -35 -40 0
-67 -41 -43 -48 0
-67 -49 -51 -56 0
-67 -1 -4 -6 0
-67 -9 -12 -14 0
-67 -17 -20 -22 0
-67 -25 -28 -30 0
-67 -33 -36 -38 0
-67 -41 -44 -46 0
-67 -49 -52 -54 0
-67 -1 -4 -8 0
-67 -9 -12 -16 0
-67 -17 -20 -24 0
-67 -25 -28 -32 0
-67 -33 -36 -40 0
-67 -41 -44 -48 0
-67 -49 -52 -56 0
-67 -1 -6 -7 0
-67 -9 -14 -15 0
-67 -17 -22 -23 0
-67 -25 -30 -31 0
-67 -33 -38 -39 0
-67 -41 -46 -47 0
-67 -49 -54 -55 0
-67 -2 -3 -5 0
-67 -10 -11 -13 0
-67 -18 -19 -21 0
-67 -26 -27 -29 0
-67 -34 -35 -37 0
-67 -42 -43 -45 0
-67 -50 -51 -53 0
-67 -2 -3 -7 0
-67 -10 -11 -15 0
-67 -18 -19 -23 0
-67 -26 -27 -31 0
-67 -34 -35 -39 0
-67 -42 -43 -47 0
-67 -50 -51 -55 0
-67 -2 -4 -5 0
-67 -10 -12 -13 0
-67 -18 -20 -21 0
-67 -26 -28 -29 0
-67 -34 -36 -37 0
-67 -42 -44 -45 0
-67 -50 -52 -53 0
-67 -2 -4 -6 0
-67 -10 -12 -14 0
-67 -18 -20 -22 0
-67 -26 -28 -30 0
-67 -34 -36 -38 0
-67 -42 -44 -46 0
-67 -50 -52 -54 0
-67 -2 -6 -7 0
-67 -10 -14 -15 0
-67 -18 -22 -23 0
-67 -26 -30 -31 0
-67 -34 -38 -39 0
-67 -42 -46 -47 0
-67 -50 -54 -55 0
-67 -3 -5 -8 0
-67 -11 -13 -16 0
-67 -19 -21 -24 0
-67 -27 -29 -32 0
-67 -35 -37 -40 0
-67 -43 -45 -48 0
-67 -51 -53 -56 0
-67 -4 -5 -8 0
-67 -12 -13 -16 0
-67 -20 -21 -24 0
-67 -28 -29 -32 0
-67 -36 -37 -40 0
-67 -44 -45 -48 0
-67 -52 -53 -56 0
-67 -1 -3 -9 -11 0
-67 -1 -4 -9 -12 0
-67 -1 -6 -9 -14 0
-67 -1 -7 -9 -15 0
-67 -1 -8 -9 -16 0
-67 -2 -3 -10 -11 0
-67 -2 -4 -10 -12 0
-67 -2 -5 -10 -13 0
-67 -2 -6 -10 -14 0
-67 -2 -7 -10 -15 0
-67 -3 -5 -11 -13 0
-67 -3 -7 -11 -15 0
-67 -3 -8 -11 -16 0
-67 -4 -5 -12 -13 0
-67 -4 -6 -12 -14 0
-67 -4 -8 -12 -16 0
-67 -5 -8 -13 -16 0
-67 -6 -7 -14 -15 0
-67 -9 -11 -49 -51 0
-67 -9 -12 -49 -52 0
-67 -9 -14 -49 -54 0
-67 -9 -15 -49 -55 0
-67 -9 -16 -49 -56 0
-67 -10 -11 -50 -51 0
-67 -10 -12 -50 -52 0
-67 -10 -13 -50 -53 0
-67 -10 -14 -50 -54 0
-67 -10 -15 -50 -55 0
-67 -11 -13 -51 -53 0
-67 -11 -15 -51 -55 0
-67 -11 -16 -51 -56 0
-67 -12 -13 -52 -53 0
-67 -12 -14 -52 -54 0
-67 -12 -16 -52 -56 0
-67 -13 -16 -53 -56 0
-67 -14 -15 -54 -55 0
-67 -17 -19 -33 -35 0
-67 -17 -20 -33 -36 0
-67 -17 -22 -33 -38 0
-67 -17 -23 -33 -39 0
-67 -17 -24 -33 -40 0
-67 -18 -19 -34 -35 0
-67 -18 -20 -34 -36 0
-67 -18 -21 -34 -37 0
-67 -18 -22 -34 -38 0
-67 -18 -23 -34 -39 0
-67 -19 -21 -35 -37 0
-67 -19 -23 -35 -39 0
-67 -19 -24 -35 -40 0
-67 -20 -21 -36 -37 0
-67 -20 -22 -36 -38 0
-67 -20 -24 -36 -40 0
-67 -21 -24 -37 -40 0
-67 -22 -23 -38 -39 0
-67 -17 -19 -49 -51 0
-67 -17 -20 -49 -52 0
-67 -17 -22 -49 -54 0
-67 -17 -23 -49 -55 0
-67 -17 -24 -49 -56 0
-67 -18 -19 -50 -51 0
-67 -18 -20 -50 -52 0
-67 -18 -21 -50 -53 0
-67 -18 -22 -50 -54 0
-67 -18 -23 -50 -55 0
-67 -19 -21 -51 -53 0
-67 -19 -23 -51 -55 0
-67 -19 -24 -51 -56 0
-67 -20 -21 -52 -53 0
-67 -20 -22 -52 -54 0
-67 -20 -24 -52 -56 0
-67 -21 -24 -53 -56 0
-67 -22 -23 -54 -55 0
-67 -25 -27 -41 -43 0
-67 -25 -28 -41 -44 0
-67 -25 -30 -41 -46 0
-67 -25 -31 -41 -47 0
-67 -25 -32 -41 -48 0
-67 -26 -27 -42 -43 0
-67 -26 -28 -42 -44 0
-67 -26 -29 -42 -45 0
-67 -26 -30 -42 -46 0
-67 -26 -31 -42 -47 0
-67 -27 -29 -43 -45 0
-67 -27 -31 -43 -47 0
-67 -27 -32 -43 -48 0
-67 -28 -29 -44 -45 0
-67 -28 -30 -44 -46 0
-67 -28 -32 -44 -48 0
-67 -29 -32 -45 -48 0
-67 -30 -31 -46 -47 0
-67 -25 -27 -49 -51 0
-67 -25 -28 -49 -52 0
-67 -25 -30 -49 -54 0
-67 -25 -31 -49 -55 0
-67 -25 -32 -49 -56 0
-67 -26 -27 -50 -51 0
-67 -26 -28 -50 -52 0
-67 -26 -29 -50 -53 0
-67 -26 -30 -50 -54 0
-67 -26 -31 -50 -55 0
-67 -27 -29 -51 -53 0
-67 -27 -31 -51 -55 0
-67 -27 -32 -51 -56 0
-67 -28 -29 -52 -53 0
-67 -28 -30 -52 -54 0
-67 -28 -32 -52 -56 0
-67 -29 -32 -53 -56 0
-67 -30 -31 -54 -55 0
-67 -33 -35 -41 -43 0
-67 -33 -36 -41 -44 0
-67 -33 -38 -41 -46 0
-67 -33 -39 -41 -47 0
-67 -33 -40 -41 -48 0
-67 -34 -35 -42 -43 0
-67 -34 -36 -42 -44 0
-67 -34 -37 -42 -45 0
-67 -34 -38 -42 -46 0
-67 -34 -39 -42 -47 0
-67 -35 -37 -43 -45 0
-67 -35 -39 -43 -47 0
-67 -35 -40 -43 -48 0
-67 -36 -37 -44 -45 0
-67 -36 -38 -44 -46 0
-67 -36 -40 -44 -48 0
-67 -37 -40 -45 -48 0
-67 -38 -39 -46 -47 0
-67 1 17 25 0
-67 2 18 26 0
-67 3 19 27 0
-67 4 20 28 0
-67 5 21 29 0
-67 6 22 30 0
-67 7 23 31 0
-67 8 24 32 0
-67 1 17 41 0
-67 2 18 42 0
-67 3 19 43 0
-67 4 20 44 0
-67 5 21 45 0
-67 6 22 46 0
-67 7 23 47 0
-67 8 24 48 0
-67 1 25 33 0
-67 2 26 34 0
-67 3 27 35 0
-67 4 28 36 0
-67 5 29 37 0
-67 6 30 38 0
-67 7 31 39 0
-67 8 32 40 0
-67 1 33 49 0
-67 2 34 50 0
-67 3 35 51 0
-67 4 36 52 0
-67 5 37 53 0
-67 6 38 54 0
-67 7 39 55 0
-67 8 40 56 0
-67 1 41 49 0
-67 2 42 50 0
-67 3 43 51 0
-67 4 44 52 0
-67 5 45 53 0
-67 6 46 54 0
-67 7 47 55 0
-67 8 48 56 0
-67 9 17 25 0
-67 10 18 26 0
-67 11 19 27 0
-67 12 20 28 0
-67 13 21 29 0
-67 14 22 30 0
-67 15 23 31 0
-67 16 24 32 0
-67 9 17 41 0
-67 10 18 42 0
-67 11 19 43 0
-67 12 20 44 0
-67 13 21 45 0
-67 14 22 46 0
-67 15 23 47 0
-67 16 24 48 0
-67 9 25 33 0
-67 10 26 34 0
-67 11 27 35 0
-67 12 28 36 0
-67 13 29 37 0
-67 14 30 38 0
-67 15 31 39 0
-67 16 32 40 0
-67 1 2 17 18 0
-67 1 5 17 21 0
-67 2 8 18 24 0
-67 3 4 19 20 0
-67 3 6 19 22 0
-67 4 7 20 23 0
-67 5 6 21 22 0
-67 5 7 21 23 0
-67 6 8 22 24 0
-67 7 8 23 24 0
-67 1 2 25 26 0
-67 1 5 25 29 0
-67 2 8 26 32 0
-67 3 4 27 28 0
-67 3 6 27 30 0
-67 4 7 28 31 0
-67 5 6 29 30 0
-67 5 7 29 31 0
-67 6 8 30 32 0
-67 7 8 31 32 0
-67 1 2 33 34 0
-67 1 5 33 37 0
-67 2 8 34 40 0
-67 3 4 35 36 0
-67 3 6 35 38 0
-67 4 7 36 39 0
-67 5 6 37 38 0
-67 5 7 37 39 0
-67 6 8 38 40 0
-67 7 8 39 40 0
-67 1 2 41 42 0
-67 1 5 41 45 0
-67 2 8 42 48 0
-67 3 4 43 44 0
-67 3 6 43 46 0
-67 4 7 44 47 0
-67 5 6 45 46 0
-67 5 7 45 47 0
-67 6 8 46 48 0
-67 7 8 47 48 0
-67 1 2 49 50 0
-67 1 5 49 53 0
-67 2 8 50 56 0
-67 3 4 51 52 0
-67 3 6 51 54 0
-67 4 7 52 55 0
-67 5 6 53 54 0
-67 5 7 53 55 0
-67 6 8 54 56 0
-67 7 8 55 56 0
-67 9 10 17 18 0
-67 9 13 17 21 0
-67 10 16 18 24 0
-67 11 12 19 20 0
-67 11 14 19 22 0
-67 12 15 20 23 0
-67 13 14 21 22 0
-67 13 15 21 23 0
-67 14 16 22 24 0
-67 15 16 23 24 0
-67 9 10 25 26 0
-67 9 13 25 29 0
-67 10 16 26 32 0
-67 11 12 27 28 0
-67 11 14 27 30 0
-67 12 15 28 31 0
-67 13 14 29 30 0
-67 13 15 29 31 0
-67 14 16 30 32 0
-67 15 16 31 32 0
-67 9 10 33 34 0
-67 9 13 33 37 0
-67 10 16 34 40 0
-67 11 12 35 36 0
-67 11 14 35 38 0
-67 12 15 36 39 0
-67 13 14 37 38 0
-67 13 15 37 39 0
-67 14 16 38 40 0
-67 15 16 39 40 0
-67 9 10 41 42 0
-67 9 13 41 45 0
-67 10 16 42 48 0
-67 11 12 43 44 0
-67 11 14 43 46 0
-67 12 15 44 47 0
-67 13 14 45 46 0
-67 13 15 45 47 0
-67 14 16 46 48 0
-67 15 16 47 48 0
-67 17 18 25 26 0
-67 17 21 25 29 0
-67 18 24 26 32 0
-67 19 20 27 28 0
-67 19 22 27 30 0
-67 20 23 28 31 0
-67 21 22 29 30 0
-67 21 23 29 31 0
-67 22 24 30 32 0
-67 23 24 31 32 0
-67 17 18 41 42 0
-67 17 21 41 45 0
-67 18 24 42 48 0
-67 19 20 43 44 0
-67 19 22 43 46 0
-67 20 23 44 47 0
-67 21 22 45 46 0
-67 21 23 45 47 0
-67 22 24 46 48 0
-67 23 24 47 48 0
-67 25 26 33 34 0
-67 25 29 33 37 0
-67 26 32 34 40 0
-67 27 28 35 36 0
-67 27 30 35 38 0
-67 28 31 36 39 0
-67 29 30 37 38 0
-67 29 31 37 39 0
-67 30 32 38 40 0
-67 31 32 39 40 0
-67 33 34 49 50 0
-67 33 37 49 53 0
-67 34 40 50 56 0
-67 35 36 51 52 0
-67 35 38 51 54 0
-67 36 39 52 55 0
-67 37 38 53 54 0
-67 37 39 53 55 0
-67 38 40 54 56 0
-67 39 40 55 56 0
-67 41 42 49 50 0
-67 41 45 49 53 0
-67 42 48 50 56 0
-67 43 44 51 52 0
-67 43 46 51 54 0
-67 44 47 52 55 0
-67 45 46 53 54 0
-67 45 47 53 55 0
-67 46 48 54 56 0
-67 47 48 55 56 0
-68 -1 -5 -7 0
-68 -9 -13 -15 0
-68 -17 -21 -23 0
-68 -25 -29 -31 0
-68 -33 -37 -39 0
-68 -41 -45 -47 0
-68 -49 -53 -55 0
-68 -1 -6 -8 0
-68 -9 -14 -16 0
-68 -17 -22 -24 0
-68 -25 -30 -32 0
-68 -33 -38 -40 0
-68 -41 -46 -48 0
-68 -49 -54 -56 0
-68 -1 -7 -8 0
-68 -9 -15 -16 0
-68 -17 -23 -24 0
-68 -25 -31 -32 0
-68 -33 -39 -40 0
-68 -41 -47 -48 0
-68 -49 -55 -56 0
-68 -2 -3 -4 0
-68 -10 -11 -12 0
-68 -18 -19 -20 0
-68 -26 -27 -28 0
-68 -34 -35 -36 0
-68 -42 -43 -44 0
-68 -50 -51 -52 0
-68 -2 -4 -6 0
-68 -10 -12 -14 0
-68 -18 -20 -22 0
-68 -26 -28 -30 0
-68 -34 -36 -38 0
-68 -42 -44 -46 0
-68 -50 -52 -54 0
-68 -2 -6 -8 0
-68 -10 -14 -16 0
-68 -18 -22 -24 0
-68 -26 -30 -32 0
-68 -34 -38 -40 0
-68 -42 -46 -48 0
-68 -50 -54 -56 0
-68 -3 -4 -5 0
-68 -11 -12 -13 0
-68 -19 -20 -21 0
-68 -27 -28 -29 0
-68 -35 -36 -37 0
-68 -43 -44 -45 0
-68 -51 -52 -53 0
-68 -3 -5 -7 0
-68 -11 -13 -15 0
-68 -19 -21 -23 0
-68 -27 -29 -31 0
-68 -35 -37 -39 0
-68 -43 -45 -47 0
-68 -51 -53 -55 0
-68 -1 -5 -9 -13 0
-68 -1 -6 -9 -14 0
-68 -1 -7 -9 -15 0
-68 -1 -8 -9 -16 0
-68 -2 -3 -10 -11 0
-68 -2 -4 -10 -12 0
-68 -2 -6 -10 -14 0
-68 -2 -8 -10 -16 0
-68 -3 -4 -11 -12 0
-68 -3 -5 -11 -13 0
-68 -3 -7 -11 -15 0
-68 -4 -5 -12 -13 0
-68 -4 -6 -12 -14 0
-68 -5 -7 -13 -15 0
-68 -6 -8 -14 -16 0
-68 -7 -8 -15 -16 0
-68 -9 -13 -49 -53 0
-68 -9 -14 -49 -54 0
-68 -9 -15 -49 -55 0
-68 -9 -16 -49 -56 0
-68 -10 -11 -50 -51 0
-68 -10 -12 -50 -52 0
-68 -10 -14 -50 -54 0
-68 -10 -16 -50 -56 0
-68 -11 -12 -51 -52 0
-68 -11 -13 -51 -53 0
-68 -11 -15 -51 -55 0
-68 -12 -13 -52 -53 0
-68 -12 -14 -52 -54 0
-68 -13 -15 -53 -55 0
-68 -14 -16 -54 -56 0
-68 -15 -16 -55 -56 0
-68 -17 -21 -33 -37 0
-68 -17 -22 -33 -38 0
-68 -17 -23 -33 -39 0
-68 -17 -24 -33 -40 0
-68 -18 -19 -34 -35 0
-68 -18 -20 -34 -36 0
-68 -18 -22 -34 -38 0
-68 -18 -24 -34 -40 0
-68 -19 -20 -35 -36 0
-68 -19 -21 -35 -37 0
-68 -19 -23 -35 -39 0
-68 -20 -21 -36 -37 0
-68 -20 -22 -36 -38 0
-68 -21 -23 -37 -39 0
-68 -22 -24 -38 -40 0
-68 -23 -24 -39 -40 0
-68 -17 -21 -49 -53 0
-68 -17 -22 -49 -54 0
-68 -17 -23 -49 -55 0
-68 -17 -24 -49 -56 0
-68 -18 -19 -50 -51 0
-68 -18 -20 -50 -52 0
-68 -18 -22 -50 -54 0
-68 -18 -24 -50 -56 0
-68 -19 -20 -51 -52 0
-68 -19 -21 -51 -53 0
-68 -19 -23 -51 -55 0
-68 -20 -21 -52 -53 0
-68 -20 -22 -52 -54 0
-68 -21 -23 -53 -55 0
-68 -22 -24 -54 -56 0
-68 -23 -24 -55 -56 0
-68 -25 -29 -41 -45 0
-68 -25 -30 -41 -46 0
-68 -25 -31 -41 -47 0
-68 -25 -32 -41 -48 0
-68 -26 -27 -42 -43 0
-68 -26 -28 -42 -44 0
-68 -26 -30 -42 -46 0
-68 -26 -32 -42 -48 0
-68 -27 -28 -43 -44 0
-68 -27 -29 -43 -45 0
-68 -27 -31 -43 -47 0
-68 -28 -29 -44 -45 0
-68 -28 -30 -44 -46 0
-68 -29 -31 -45 -47 0
-68 -30 -32 -46 -48 0
-68 -31 -32 -47 -48 0
-68 -25 -29 -49 -53 0
-68 -25 -30 -49 -54 0
-68 -25 -31 -49 -55 0
-68 -25 -32 -49 -56 0
-68 -26 -27 -50 -51 0
-68 -26 -28 -50 -52 0
-68 -26 -30 -50 -54 0
-68 -26 -32 -50 -56 0
-68 -27 -28 -51 -52 0
-68 -27 -29 -51 -53 0
-68 -27 -31 -51 -55 0
-68 -28 -29 -52 -53 0
-68 -28 -30 -52 -54 0
-68 -29 -31 -53 -55 0
-68 -30 -32 -54 -56 0
-68 -31 -32 -55 -56 0
-68 -33 -37 -41 -45 0
-68 -33 -38 -41 -46 0
-68 -33 -39 -41 -47 0
-68 -33 -40 -41 -48 0
-68 -34 -35 -42 -43 0
-68 -34 -36 -42 -44 0
-68 -34 -38 -42 -46 0
-68 -34 -40 -42 -48 0
-68 -35 -36 -43 -44 0
-68 -35 -37 -43 -45 0
-68 -35 -39 -43 -47 0
-68 -36 -37 -44 -45 0
-68 -36 -38 -44 -46 0
-68 -37 -39 -45 -47 0
-68 -38 -40 -46 -48 0
-68 -39 -40 -47 -48 0
-68 1 17 25 0
-68 2 18 26 0
-68 3 19 27 0
-68 4 20 28 0
-68 5 21 29 0
-68 6 22 30 0
-68 7 23 31 0
-68 8 24 32 0
-68 1 17 41 0
-68 2 18 42 0
-68 3 19 43 0
-68 4 20 44 0
-68 5 21 45 0
-68 6 22 46 0
-68 7 23 47 0
-68 8 24 48 0
-68 1 25 33 0
-68 2 26 34 0
-68 3 27 35 0
-68 4 28 36 0
-68 5 29 37 0
-68 6 30 38 0
-68 7 31 39 0
-68 8 32 40 0
-68 1 33 49 0
-68 2 34 50 0
-68 3 35 51 0
-68 4 36 52 0
-68 5 37 53 0
-68 6 38 54 0
-68 7 39 55 0
-68 8 40 56 0
-68 1 41 49 0
-68 2 42 50 0
-68 3 43 51 0
-68 4 44 52 0
-68 5 45 53 0
-68 6 46 54 0
-68 7 47 55 0
-68 8 48 56 0
-68 9 17 25 0
-68 10 18 26 0
-68 11 19 27 0
-68 12 20 28 0
-68 13 21 29 0
-68 14 22 30 0
-68 15 23 31 0
-68 16 24 32 0
-68 9 17 41 0
-68 10 18 42 0
-68 11 19 43 0
-68 12 20 44 0
-68 13 21 45 0
-68 14 22 46 0
-68 15 23 47 0
-68 16 24 48 0
-68 9 25 33 0
-68 10 26 34 0
-68 11 27 35 0
-68 12 28 36 0
-68 13 29 37 0
-68 14 30 38 0
-68 15 31 39 0
-68 16 32 40 0
-68 1 2 17 18 0
-68 1 3 17 19 0
-68 1 4 17 20 0
-68 2 5 18 21 0
-68 2 7 18 23 0
-68 3 6 19 22 0
-68 3 8 19 24 0
-68 4 7 20 23 0
-68 4 8 20 24 0
-68 5 6 21 22 0
-68 5 8 21 24 0
-68 6 7 22 23 0
-68 1 2 25 26 0
-68 1 3 25 27 0
-68 1 4 25 28 0
-68 2 5 26 29 0
-68 2 7 26 31 0
-68 3 6 27 30 0
-68 3 8 27 32 0
-68 4 7 28 31 0
-68 4 8 28 32 0
-68 5 6 29 30 0
-68 5 8 29 32 0
-68 6 7 30 31 0
-68 1 2 33 34 0
-68 1 3 33 35 0
-68 1 4 33 36 0
-68 2 5 34 37 0
-68 2 7 34 39 0
-68 3 6 35 38 0
-68 3 8 35 40 0
-68 4 7 36 39 0
-68 4 8 36 40 0
-68 5 6 37 38 0
-68 5 8 37 40 0
-68 6 7 38 39 0
-68 1 2 41 42 0
-68 1 3 41 43 0
-68 1 4 41 44 0
-68 2 5 42 45 0
-68 2 7 42 47 0
-68 3 6 43 46 0
-68 3 8 43 48 0
-68 4 7 44 47 0
-68 4 8 44 48 0
-68 5 6 45 46 0
-68 5 8 45 48 0
-68 6 7 46 47 0
-68 1 2 49 50 0
-68 1 3 49 51 0
-68 1 4 49 52 0
-68 2 5 50 53 0
-68 2 7 50 55 0
-68 3 6 51 54 0
-68 3 8 51 56 0
-68 4 7 52 55 0
-68 4 8 52 56 0
-68 5 6 53 54 0
-68 5 8 53 56 0
-68 6 7 54 55 0
-68 9 10 17 18 0
-68 9 11 17 19 0
-68 9 12 17 20 0
-68 10 13 18 21 0
-68 10 15 18 23 0
-68 11 14 19 22 0
-68 11 16 19 24 0
-68 12 15 20 23 0
-68 12 16 20 24 0
-68 13 14 21 22 0
-68 13 16 21 24 0
-68 14 15 22 23 0
-68 9 10 25 26 0
-68 9 11 25 27 0
-68 9 12 25 28 0
-68 10 13 26 29 0
-68 10 15 26 31 0
-68 11 14 27 30 0
-68 11 16 27 32 0
-68 12 15 28 31 0
-68 12 16 28 32 0
-68 13 14 29 30 0
-68 13 16 29 32 0
-68 14 15 30 31 0
-68 9 10 33 34 0
-68 9 11 33 35 0
-68 9 12 33 36 0
-68 10 13 34 37 0
-68 10 15 34 39 0
-68 11 14 35 38 0
-68 11 16 35 40 0
-68 12 15 36 39 0
-68 12 16 36 40 0
-68 13 14 37 38 0
-68 13 16 37 40 0
-68 14 15 38 39 0
-68 9 10 41 42 0
-68 9 11 41 43 0
-68 9 12 41 44 0
-68 10 13 42 45 0
-68 10 15 42 47 0
-68 11 14 43 46 0
-68 11 16 43 48 0
-68 12 15 44 47 0
-68 12 16 44 48 0
-68 13 14 45 46 0
-68 13 16 45 48 0
-68 14 15 46 47 0
-68 17 18 25 26 0
-68 17 19 25 27 0
-68 17 20 25 28 0
-68 18 21 26 29 0
-68 18 23 26 31 0
-68 19 22 27 30 0
-68 19 24 27 32 0
-68 20 23 28 31 0
-68 20 24 28 32 0
-68 21 22 29 30 0
-68 21 24 29 32 0
-68 22 23 30 31 0
-68 17 18 41 42 0
-68 17 19 41 43 0
-68 17 20 41 44 0
-68 18 21 42 45 0
-68 18 23 42 47 0
-68 19 22 43 46 0
-68 19 24 43 48 0
-68 20 23 44 47 0
-68 20 24 44 48 0
-68 21 22 45 46 0
-68 21 24 45 48 0
-68 22 23 46 47 0
-68 25 26 33 34 0
-68 25 27 33 35 0
-68 25 28 33 36 0
-68 26 29 34 37 0
-68 26 31 34 39 0
-68 27 30 35 38 0
-68 27 32 35 40 0
-68 28 31 36 39 0
-68 28 32 36 40 0
-68 29 30 37 38 0
-68 29 32 37 40 0
-68 30 31 38 39 0
-68 33 34 49 50 0
-68 33 35 49 51 0
-68 33 36 49 52 0
-68 34 37 50 53 0
-68 34 39 50 55 0
-68 35 38 51 54 0
-68 35 40 51 56 0
-68 36 39 52 55 0
-68 36 40 52 56 0
-68 37 38 53 54 0
-68 37 40 53 56 0
-68 38 39 54 55 0
-68 41 42 49 50 0
-68 41 43 49 51 0
-68 41 44 49 52 0
-68 42 45 50 53 0
-68 42 47 50 55 0
-68 43 46 51 54 0
-68 43 48 51 56 0
-68 44 47 52 55 0
-68 44 48 52 56 0
-68 45 46 53 54 0
-68 45 48 53 56 0
-68 46 47 54 55 0
-69 -1 -2 -3 0
-69 -9 -10 -11 0
-69 -17 -18 -19 0
-69 -25 -26 -27 0
-69 -33 -34 -35 0
-69 -41 -42 -43 0
-69 -49 -50 -51 0
-69 -1 -2 -4 0
-69 -9 -10 -12 0
-69 -17 -18 -20 0
-69 -25 -26 -28 0
-69 -33 -34 -36 0
-69 -41 -42 -44 0
-69 -49 -50 -52 0
-69 -1 -3 -6 0
-69 -9 -11 -14 0
-69 -17 -19 -22 0
-69 -25 -27 -30 0
-69 -33 -35 -38 0
-69 -41 -43 -46 0
-69 -49 -51 -54 0
-69 -1 -4 -7 0
-69 -9 -12 -15 0
-69 -17 -20 -23 0
-69 -25 -28 -31 0
-69 -33 -36 -39 0
-69 -41 -44 -47 0
-69 -49 -52 -55 0
-69 -1 -6 -7 0
-69 -9 -14 -15 0
-69 -17 -22 -23 0
-69 -25 -30 -31 0
-69 -33 -38 -39 0
-69 -41 -46 -47 0
-69 -49 -54 -55 0
-69 -2 -3 -8 0
-69 -10 -11 -16 0
-69 -18 -19 -24 0
-69 -26 -27 -32 0
-69 -34 -35 -40 0
-69 -42 -43 -48 0
-69 -50 -51 -56 0
-69 -2 -4 -5 0
-69 -10 -12 -13 0
-69 -18 -20 -21 0
-69 -26 -28 -29 0
-69 -34 -36 -37 0
-69 -42 -44 -45 0
-69 -50 -52 -53 0
-69 -2 -5 -8 0
-69 -10 -13 -16 0
-69 -18 -21 -24 0
-69 -26 -29 -32 0
-69 -34 -37 -40 0
-69 -42 -45 -48 0
-69 -50 -53 -56 0
-69 -3 -6 -8 0
-69 -11 -14 -16 0
-69 -19 -22 -24 0
-69 -27 -30 -32 0
-69 -35 -38 -40 0
-69 -43 -46 -48 0
-69 -51 -54 -56 0
-69 -4 -5 -7 0
-69 -12 -13 -15 0
-69 -20 -21 -23 0
-69 -28 -29 -31 0
-69 -36 -37 -39 0
-69 -44 -45 -47 0
-69 -52 -53 -55 0
-69 -1 -2 -9 -10 0
-69 -1 -3 -9 -11 0
-69 -1 -4 -9 -12 0
-69 -1 -6 -9 -14 0
-69 -1 -7 -9 -15 0
-69 -2 -3 -10 -11 0
-69 -2 -4 -10 -12 0
-69 -2 -5 -10 -13 0
-69 -2 -8 -10 -16 0
-69 -3 -6 -11 -14 0
-69 -3 -8 -11 -16 0
-69 -4 -5 -12 -13 0
-69 -4 -7 -12 -15 0
-69 -5 -7 -13 -15 0
-69 -5 -8 -13 -16 0
-69 -6 -7 -14 -15 0
-69 -6 -8 -14 -16 0
-69 -1 -2 -41 -42 0
-69 -1 -3 -41 -43 0
-69 -1 -4 -41 -44 0
-69 -1 -6 -41 -46 0
-69 -1 -7 -41 -47 0
-69 -2 -3 -42 -43 0
-69 -2 -4 -42 -44 0
-69 -2 -5 -42 -45 0
-69 -2 -8 -42 -48 0
-69 -3 -6 -43 -46 0
-69 -3 -8 -43 -48 0
-69 -4 -5 -44 -45 0
-69 -4 -7 -44 -47 0
-69 -5 -7 -45 -47 0
-69 -5 -8 -45 -48 0
-69 -6 -7 -46 -47 0
-69 -6 -8 -46 -48 0
-69 -9 -10 -49 -50 0
-69 -9 -11 -49 -51 0
-69 -9 -12 -49 -52 0
-69 -9 -14 -49 -54 0
-69 -9 -15 -49 -55 0
-69 -10 -11 -50 -51 0
-69 -10 -12 -50 -52 0
-69 -10 -13 -50 -53 0
-69 -10 -16 -50 -56 0
-69 -11 -14 -51 -54 0
-69 -11 -16 -51 -56 0
-69 -12 -13 -52 -53 0
-69 -12 -15 -52 -55 0
-69 -13 -15 -53 -55 0
-69 -13 -16 -53 -56 0
-69 -14 -15 -54 -55 0
-69 -14 -16 -54 -56 0
-69 -17 -18 -25 -26 0
-69 -17 -19 -25 -27 0
-69 -17 -20 -25 -28 0
-69 -17 -22 -25 -30 0
-69 -17 -23 -25 -31 0
-69 -18 -19 -26 -27 0
-69 -18 -20 -26 -28 0
-69 -18 -21 -26 -29 0
-69 -18 -24 -26 -32 0
-69 -19 -22 -27 -30 0
-69 -19 -24 -27 -32 0
-69 -20 -21 -28 -29 0
-69 -20 -23 -28 -31 0
-69 -21 -23 -29 -31 0
-69 -21 -24 -29 -32 0
-69 -22 -23 -30 -31 0
-69 -22 -24 -30 -32 0
-69 -17 -18 -49 -50 0
-69 -17 -19 -49 -51 0
-69 -17 -20 -49 -52 0
-69 -17 -22 -49 -54 0
-69 -17 -23 -49 -55 0
-69 -18 -19 -50 -51 0
-69 -18 -20 -50 -52 0
-69 -18 -21 -50 -53 0
-69 -18 -24 -50 -56 0
-69 -19 -22 -51 -54 0
-69 -19 -24 -51 -56 0
-69 -20 -21 -52 -53 0
-69 -20 -23 -52 -55 0
-69 -21 -23 -53 -55 0
-69 -21 -24 -53 -56 0
-69 -22 -23 -54 -55 0
-69 -22 -24 -54 -56 0
-69 -25 -26 -41 -42 0
-69 -25 -27 -41 -43 0
-69 -25 -28 -41 -44 0
-69 -25 -30 -41 -46 0
-69 -25 -31 -41 -47 0
-69 -26 -27 -42 -43 0
-69 -26 -28 -42 -44 0
-69 -26 -29 -42 -45 0
-69 -26 -32 -42 -48 0
-69 -27 -30 -43 -46 0
-69 -27 -32 -43 -48 0
-69 -28 -29 -44 -45 0
-69 -28 -31 -44 -47 0
-69 -29 -31 -45 -47 0
-69 -29 -32 -45 -48 0
-69 -30 -31 -46 -47 0
-69 -30 -32 -46 -48 0
-69 -33 -34 -41 -42 0
-69 -33 -35 -41 -43 0
-69 -33 -36 -41 -44 0
-69 -33 -38 -41 -46 0
-69 -33 -39 -41 -47 0
-69 -34 -35 -42 -43 0
-69 -34 -36 -42 -44 0
-69 -34 -37 -42 -45 0
-69 -34 -40 -42 -48 0
-69 -35 -38 -43 -46 0
-69 -35 -40 -43 -48 0
-69 -36 -37 -44 -45 0
-69 -36 -39 -44 -47 0
-69 -37 -39 -45 -47 0
-69 -37 -40 -45 -48 0
-69 -38 -39 -46 -47 0
-69 -38 -40 -46 -48 0
-69 -33 -34 -49 -50 0
-69 -33 -35 -49 -51 0
-69 -33 -36 -49 -52 0
-69 -33 -38 -49 -54 0
-69 -33 -39 -49 -55 0
-69 -34 -35 -50 -51 0
-69 -34 -36 -50 -52 0
-69 -34 -37 -50 -53 0
-69 -34 -40 -50 -56 0
-69 -35 -38 -51 -54 0
-69 -35 -40 -51 -56 0
-69 -36 -37 -52 -53 0
-69 -36 -39 -52 -55 0
-69 -37 -39 -53 -55 0
-69 -37 -40 -53 -56 0
-69 -38 -39 -54 -55 0
-69 -38 -40 -54 -56 0
-69 1 17 33 0
-69 2 18 34 0
-69 3 19 35 0
-69 4 20 36 0
-69 5 21 37 0
-69 6 22 38 0
-69 7 23 39 0
-69 8 24 40 0
-69 1 25 33 0
-69 2 26 34 0
-69 3 27 35 0
-69 4 28 36 0
-69 5 29 37 0
-69 6 30 38 0
-69 7 31 39 0
-69 8 32 40 0
-69 1 25 49 0
-69 2 26 50 0
-69 3 27 51 0
-69 4 28 52 0
-69 5 29 53 0
-69 6 30 54 0
-69 7 31 55 0
-69 8 32 56 0
-69 9 17 33 0
-69 10 18 34 0
-69 11 19 35 0
-69 12 20 36 0
-69 13 21 37 0
-69 14 22 38 0
-69 15 23 39 0
-69 16 24 40 0
-69 9 17 41 0
-69 10 18 42 0
-69 11 19 43 0
-69 12 20 44 0
-69 13 21 45 0
-69 14 22 46 0
-69 15 23 47 0
-69 16 24 48 0
-69 9 25 33 0
-69 10 26 34 0
-69 11 27 35 0
-69 12 28 36 0
-69 13 29 37 0
-69 14 30 38 0
-69 15 31 39 0
-69 16 32 40 0
-69 1 5 17 21 0
-69 1 8 17 24 0
-69 2 6 18 22 0
-69 2 7 18 23 0
-69 3 4 19 20 0
-69 3 5 19 21 0
-69 3 7 19 23 0
-69 4 6 20 22 0
-69 4 8 20 24 0
-69 5 6 21 22 0
-69 7 8 23 24 0
-69 1 5 25 29 0
-69 1 8 25 32 0
-69 2 6 26 30 0
-69 2 7 26 31 0
-69 3 4 27 28 0
-69 3 5 27 29 0
-69 3 7 27 31 0
-69 4 6 28 30 0
-69 4 8 28 32 0
-69 5 6 29 30 0
-69 7 8 31 32 0
-69 1 5 33 37 0
-69 1 8 33 40 0
-69 2 6 34 38 0
-69 2 7 34 39 0
-69 3 4 35 36 0
-69 3 5 35 37 0
-69 3 7 35 39 0
-69 4 6 36 38 0
-69 4 8 36 40 0
-69 5 6 37 38 0
-69 7 8 39 40 0
-69 1 5 49 53 0
-69 1 8 49 56 0
-69 2 6 50 54 0
-69 2 7 50 55 0
-69 3 4 51 52 0
-69 3 5 51 53 0
-69 3 7 51 55 0
-69 4 6 52 54 0
-69 4 8 52 56 0
-69 5 6 53 54 0
-69 7 8 55 56 0
-69 9 13 17 21 0
-69 9 16 17 24 0
-69 10 14 18 22 0
-69 10 15 18 23 0
-69 11 12 19 20 0
-69 11 13 19 21 0
-69 11 15 19 23 0
-69 12 14 20 22 0
-69 12 16 20 24 0
-69 13 14 21 22 0
-69 15 16 23 24 0
-69 9 13 25 29 0
-69 9 16 25 32 0
-69 10 14 26 30 0
-69 10 15 26 31 0
-69 11 12 27 28 0
-69 11 13 27 29 0
-69 11 15 27 31 0
-69 12 14 28 30 0
-69 12 16 28 32 0
-69 13 14 29 30 0
-69 15 16 31 32 0
-69 9 13 33 37 0
-69 9 16 33 40 0
-69 10 14 34 38 0
-69 10 15 34 39 0
-69 11 12 35 36 0
-69 11 13 35 37 0
-69 11 15 35 39 0
-69 12 14 36 38 0
-69 12 16 36 40 0
-69 13 14 37 38 0
-69 15 16 39 40 0
-69 9 13 41 45 0
-69 9 16 41 48 0
-69 10 14 42 46 0
-69 10 15 42 47 0
-69 11 12 43 44 0
-69 11 13 43 45 0
-69 11 15 43 47 0
-69 12 14 44 46 0
-69 12 16 44 48 0
-69 13 14 45 46 0
-69 15 16 47 48 0
-69 17 21 33 37 0
-69 17 24 33 40 0
-69 18 22 34 38 0
-69 18 23 34 39 0
-69 19 20 35 36 0
-69 19 21 35 37 0
-69 19 23 35 39 0
-69 20 22 36 38 0
-69 20 24 36 40 0
-69 21 22 37 38 0
-69 23 24 39 40 0
-69 17 21 41 45 0
-69 17 24 41 48 0
-69 18 22 42 46 0
-69 18 23 42 47 0
-69 19 20 43 44 0
-69 19 21 43 45 0
-69 19 23 43 47 0
-69 20 22 44 46 0
-69 20 24 44 48 0
-69 21 22 45 46 0
-69 23 24 47 48 0
-69 25 29 33 37 0
-69 25 32 33 40 0
-69 26 30 34 38 0
-69 26 31 34 39 0
-69 27 28 35 36 0
-69 27 29 35 37 0
-69 27 31 35 39 0
-69 28 30 36 38 0
-69 28 32 36 40 0
-69 29 30 37 38 0
-69 31 32 39 40 0
-69 25 29 49 53 0
-69 25 32 49 56 0
-69 26 30 50 54 0
-69 26 31 50 55 0
-69 27 28 51 52 0
-69 27 29 51 53 0
-69 27 31 51 55 0
-69 28 30 52 54 0
-69 28 32 52 56 0
-69 29 30 53 54 0
-69 31 32 55 56 0
-69 41 45 49 53 0
-69 41 48 49 56 0
-69 42 46 50 54 0
-69 42 47 50 55 0
-69 43 44 51 52 0
-69 43 45 51 53 0
-69 43 47 51 55 0
-69 44 46 52 54 0
-69 44 48 52 56 0
-69 45 46 53 54 0
-69 47 48 55 56 0
-70 -1 -3 -7 0
-70 -9 -11 -15 0
-70 -17 -19 -23 0
-70 -25 -27 -31 0
-70 -33 -35 -39 0
-70 -41 -43 -47 0
-70 -49 -51 -55 0
-70 -1 -3 -8 0
-70 -9 -11 -16 0
-70 -17 -19 -24 0
-70 -25 -27 -32 0
-70 -33 -35 -40 0
-70 -41 -43 -48 0
-70 -49 -51 -56 0
-70 -1 -4 -6 0
-70 -9 -12 -14 0
-70 -17 -20 -22 0
-70 -25 -28 -30 0
-70 -33 -36 -38 0
-70 -41 -44 -46 0
-70 -49 -52 -54 0
-70 -1 -4 -8 0
-70 -9 -12 -16 0
-70 -17 -20 -24 0
-70 -25 -28 -32 0
-70 -33 -36 -40 0
-70 -41 -44 -48 0
-70 -49 -52 -56 0
-70 -1 -6 -7 0
-70 -9 -14 -15 0
-70 -17 -22 -23 0
-70 -25 -30 -31 0
-70 -33 -38 -39 0
-70 -41 -46 -47 0
-70 -49 -54 -55 0
-70 -2 -3 -5 0
-70 -10 -11 -13 0
-70 -18 -19 -21 0
-70 -26 -27 -29 0
-70 -34 -35 -37 0
-70 -42 -43 -45 0
-70 -50 -51 -53 0
-70 -2 -3 -7 0
-70 -10 -11 -15 0
-70 -18 -19 -23 0
-70 -26 -27 -31 0
-70 -34 -35 -39 0
-70 -42 -43 -47 0
-70 -50 -51 -55 0
-70 -2 -4 -5 0
-70 -10 -12 -13 0
-70 -18 -20 -21 0
-70 -26 -28 -29 0
-70 -34 -36 -37 0
-70 -42 -44 -45 0
-70 -50 -52 -53 0
-70 -2 -4 -6 0
-70 -10 -12 -14 0
-70 -18 -20 -22 0
-70 -26 -28 -30 0
-70 -34 -36 -38 0
-70 -42 -44 -46 0
-70 -50 -52 -54 0
-70 -2 -6 -7 0
-70 -10 -14 -15 0
-70 -18 -22 -23 0
-70 -26 -30 -31 0
-70 -34 -38 -39 0
-70 -42 -46 -47 0
-70 -50 -54 -55 0
-70 -3 -5 -8 0
-70 -11 -13 -16 0
-70 -19 -21 -24 0
-70 -27 -29 -32 0
-70 -35 -37 -40 0
-70 -43 -45 -48 0
-70 -51 -53 -56 0
-70 -4 -5 -8 0
-70 -12 -13 -16 0
-70 -20 -21 -24 0
-70 -28 -29 -32 0
-70 -36 -37 -40 0
-70 -44 -45 -48 0
-70 -52 -53 -56 0
-70 -1 -3 -9 -11 0
-70 -1 -4 -9 -12 0
-70 -1 -6 -9 -14 0
-70 -1 -7 -9 -15 0
-70 -1 -8 -9 -16 0
-70 -2 -3 -10 -11 0
-70 -2 -4 -10 -12 0
-70 -2 -5 -10 -13 0
-70 -2 -6 -10 -14 0
-70 -2 -7 -10 -15 0
-70 -3 -5 -11 -13 0
-70 -3 -7 -11 -15 0
-70 -3 -8 -11 -16 0
-70 -4 -5 -12 -13 0
-70 -4 -6 -12 -14 0
-70 -4 -8 -12 -16 0
-70 -5 -8 -13 -16 0
-70 -6 -7 -14 -15 0
-70 -1 -3 -41 -43 0
-70 -1 -4 -41 -44 0
-70 -1 -6 -41 -46 0
-70 -1 -7 -41 -47 0
-70 -1 -8 -41 -48 0
-70 -2 -3 -42 -43 0
-70 -2 -4 -42 -44 0
-70 -2 -5 -42 -45 0
-70 -2 -6 -42 -46 0
-70 -2 -7 -42 -47 0
-70 -3 -5 -43 -45 0
-70 -3 -7 -43 -47 0
-70 -3 -8 -43 -48 0
-70 -4 -5 -44 -45 0
-70 -4 -6 -44 -46 0
-70 -4 -8 -44 -48 0
-70 -5 -8 -45 -48 0
-70 -6 -7 -46 -47 0
-70 -9 -11 -49 -51 0
-70 -9 -12 -49 -52 0
-70 -9 -14 -49 -54 0
-70 -9 -15 -49 -55 0
-70 -9 -16 -49 -56 0
-70 -10 -11 -50 -51 0
-70 -10 -12 -50 -52 0
-70 -10 -13 -50 -53 0
-70 -10 -14 -50 -54 0
-70 -10 -15 -50 -55 0
-70 -11 -13 -51 -53 0
-70 -11 -15 -51 -55 0
-70 -11 -16 -51 -56 0
-70 -12 -13 -52 -53 0
-70 -12 -14 -52 -54 0
-70 -12 -16 -52 -56 0
-70 -13 -16 -53 -56 0
-70 -14 -15 -54 -55 0
-70 -17 -19 -25 -27 0
-70 -17 -20 -25 -28 0
-70 -17 -22 -25 -30 0
-70 -17 -23 -25 -31 0
-70 -17 -24 -25 -32 0
-70 -18 -19 -26 -27 0
-70 -18 -20 -26 -28 0
-70 -18 -21 -26 -29 0
-70 -18 -22 -26 -30 0
-70 -18 -23 -26 -31 0
-70 -19 -21 -27 -29 0
-70 -19 -23 -27 -31 0
-70 -19 -24 -27 -32 0
-70 -20 -21 -28 -29 0
-70 -20 -22 -28 -30 0
-70 -20 -24 -28 -32 0
-70 -21 -24 -29 -32 0
-70 -22 -23 -30 -31 0
-70 -17 -19 -49 -51 0
-70 -17 -20 -49 -52 0
-70 -17 -22 -49 -54 0
-70 -17 -23 -49 -55 0
-70 -17 -24 -49 -56 0
-70 -18 -19 -50 -51 0
-70 -18 -20 -50 -52 0
-70 -18 -21 -50 -53 0
-70 -18 -22 -50 -54 0
-70 -18 -23 -50 -55 0
-70 -19 -21 -51 -53 0
-70 -19 -23 -51 -55 0
-70 -19 -24 -51 -56 0
-70 -20 -21 -52 -53 0
-70 -20 -22 -52 -54 0
-70 -20 -24 -52 -56 0
-70 -21 -24 -53 -56 0
-70 -22 -23 -54 -55 0
-70 -25 -27 -41 -43 0
-70 -25 -28 -41 -44 0
-70 -25 -30 -41 -46 0
-70 -25 -31 -41 -47 0
-70 -25 -32 -41 -48 0
-70 -26 -27 -42 -43 0
-70 -26 -28 -42 -44 0
-70 -26 -29 -42 -45 0
-70 -26 -30 -42 -46 0
-70 -26 -31 -42 -47 0
-70 -27 -29 -43 -45 0
-70 -27 -31 -43 -47 0
-70 -27 -32 -43 -48 0
-70 -28 -29 -44 -45 0
-70 -28 -30 -44 -46 0
-70 -28 -32 -44 -48 0
-70 -29 -32 -45 -48 0
-70 -30 -31 -46 -47 0
-70 -33 -35 -41 -43 0
-70 -33 -36 -41 -44 0
-70 -33 -38 -41 -46 0
-70 -33 -39 -41 -47 0
-70 -33 -40 -41 -48 0
-70 -34 -35 -42 -43 0
-70 -34 -36 -42 -44 0
-70 -34 -37 -42 -45 0
-70 -34 -38 -42 -46 0
-70 -34 -39 -42 -47 0
-70 -35 -37 -43 -45 0
-70 -35 -39 -43 -47 0
-70 -35 -40 -43 -48 0
-70 -36 -37 -44 -45 0
-70 -36 -38 -44 -46 0
-70 -36 -40 -44 -48 0
-70 -37 -40 -45 -48 0
-70 -38 -39 -46 -47 0
-70 -33 -35 -49 -51 0
-70 -33 -36 -49 -52 0
-70 -33 -38 -49 -54 0
-70 -33 -39 -49 -55 0
-70 -33 -40 -49 -56 0
-70 -34 -35 -50 -51 0
-70 -34 -36 -50 -52 0
-70 -34 -37 -50 -53 0
-70 -34 -38 -50 -54 0
-70 -34 -39 -50 -55 0
-70 -35 -37 -51 -53 0
-70 -35 -39 -51 -55 0
-70 -35 -40 -51 -56 0
-70 -36 -37 -52 -53 0
-70 -36 -38 -52 -54 0
-70 -36 -40 -52 -56 0
-70 -37 -40 -53 -56 0
-70 -38 -39 -54 -55 0
-70 1 17 33 0
-70 2 18 34 0
-70 3 19 35 0
-70 4 20 36 0
-70 5 21 37 0
-70 6 22 38 0
-70 7 23 39 0
-70 8 24 40 0
-70 1 25 33 0
-70 2 26 34 0
-70 3 27 35 0
-70 4 28 36 0
-70 5 29 37 0
-70 6 30 38 0
-70 7 31 39 0
-70 8 32 40 0
-70 1 25 49 0
-70 2 26 50 0
-70 3 27 51 0
-70 4 28 52 0
-70 5 29 53 0
-70 6 30 54 0
-70 7 31 55 0
-70 8 32 56 0
-70 9 17 33 0
-70 10 18 34 0
-70 11 19 35 0
-70 12 20 36 0
-70 13 21 37 0
-70 14 22 38 0
-70 15 23 39 0
-70 16 24 40 0
-70 9 17 41 0
-70 10 18 42 0
-70 11 19 43 0
-70 12 20 44 0
-70 13 21 45 0
-70 14 22 46 0
-70 15 23 47 0
-70 16 24 48 0
-70 9 25 33 0
-70 10 26 34 0
-70 11 27 35 0
-70 12 28 36 0
-70 13 29 37 0
-70 14 30 38 0
-70 15 31 39 0
-70 16 32 40 0
-70 1 2 17 18 0
-70 1 5 17 21 0
-70 2 8 18 24 0
-70 3 4 19 20 0
-70 3 6 19 22 0
-70 4 7 20 23 0
-70 5 6 21 22 0
-70 5 7 21 23 0
-70 6 8 22 24 0
-70 7 8 23 24 0
-70 1 2 25 26 0
-70 1 5 25 29 0
-70 2 8 26 32 0
-70 3 4 27 28 0
-70 3 6 27 30 0
-70 4 7 28 31 0
-70 5 6 29 30 0
-70 5 7 29 31 0
-70 6 8 30 32 0
-70 7 8 31 32 0
-70 1 2 33 34 0
-70 1 5 33 37 0
-70 2 8 34 40 0
-70 3 4 35 36 0
-70 3 6 35 38 0
-70 4 7 36 39 0
-70 5 6 37 38 0
-70 5 7 37 39 0
-70 6 8 38 40 0
-70 7 8 39 40 0
-70 1 2 49 50 0
-70 1 5 49 53 0
-70 2 8 50 56 0
-70 3 4 51 52 0
-70 3 6 51 54 0
-70 4 7 52 55 0
-70 5 6 53 54 0
-70 5 7 53 55 0
-70 6 8 54 56 0
-70 7 8 55 56 0
-70 9 10 17 18 0
-70 9 13 17 21 0
-70 10 16 18 24 0
-70 11 12 19 20 0
-70 11 14 19 22 0
-70 12 15 20 23 0
-70 13 14 21 22 0
-70 13 15 21 23 0
-70 14 16 22 24 0
-70 15 16 23 24 0
-70 9 10 25 26 0
-70 9 13 25 29 0
-70 10 16 26 32 0
-70 11 12 27 28 0
-70 11 14 27 30 0
-70 12 15 28 31 0
-70 13 14 29 30 0
-70 13 15 29 31 0
-70 14 16 30 32 0
-70 15 16 31 32 0
-70 9 10 33 34 0
-70 9 13 33 37 0
-70 10 16 34 40 0
-70 11 12 35 36 0
-70 11 14 35 38 0
-70 12 15 36 39 0
-70 13 14 37 38 0
-70 13 15 37 39 0
-70 14 16 38 40 0
-70 15 16 39 40 0
-70 9 10 41 42 0
-70 9 13 41 45 0
-70 10 16 42 48 0
-70 11 12 43 44 0
-70 11 14 43 46 0
-70 12 15 44 47 0
-70 13 14 45 46 0
-70 13 15 45 47 0
-70 14 16 46 48 0
-70 15 16 47 48 0
-70 17 18 33 34 0
-70 17 21 33 37 0
-70 18 24 34 40 0
-70 19 20 35 36 0
-70 19 22 35 38 0
-70 20 23 36 39 0
-70 21 22 37 38 0
-70 21 23 37 39 0
-70 22 24 38 40 0
-70 23 24 39 40 0
-70 17 18 41 42 0
-70 17 21 41 45 0
-70 18 24 42 48 0
-70 19 20 43 44 0
-70 19 22 43 46 0
-70 20 23 44 47 0
-70 21 22 45 46 0
-70 21 23 45 47 0
-70 22 24 46 48 0
-70 23 24 47 48 0
-70 25 26 33 34 0
-70 25 29 33 37 0
-70 26 32 34 40 0
-70 27 28 35 36 0
-70 27 30 35 38 0
-70 28 31 36 39 0
-70 29 30 37 38 0
-70 29 31 37 39 0
-70 30 32 38 40 0
-70 31 32 39 40 0
-70 25 26 49 50 0
-70 25 29 49 53 0
-70 26 32 50 56 0
-70 27 28 51 52 0
-70 27 30 51 54 0
-70 28 31 52 55 0
-70 29 30 53 54 0
-70 29 31 53 55 0
-70 30 32 54 56 0
-70 31 32 55 56 0
-70 41 42 49 50 0
-70 41 45 49 53 0
-70 42 48 50 56 0
-70 43 44 51 52 0
-70 43 46 51 54 0
-70 44 47 52 55 0
-70 45 46 53 54 0
-70 45 47 53 55 0
-70 46 48 54 56 0
-70 47 48 55 56 0
-71 -1 -5 -7 0
-71 -9 -13 -15 0
-71 -17 -21 -23 0
-71 -25 -29 -31 0
-71 -33 -37 -39 0
-71 -41 -45 -47 0
-71 -49 -53 -55 0
-71 -1 -6 -8 0
-71 -9 -14 -16 0
-71 -17 -22 -24 0
-71 -25 -30 -32 0
-71 -33 -38 -40 0
-71 -41 -46 -48 0
-71 -49 -54 -56 0
-71 -1 -7 -8 0
-71 -9 -15 -16 0
-71 -17 -23 -24 0
-71 -25 -31 -32 0
-71 -33 -39 -40 0
-71 -41 -47 -48 0
-71 -49 -55 -56 0
-71 -2 -3 -4 0
-71 -10 -11 -12 0
-71 -18 -19 -20 0
-71 -26 -27 -28 0
-71 -34 -35 -36 0
-71 -42 -43 -44 0
-71 -50 -51 -52 0
-71 -2 -4 -6 0
-71 -10 -12 -14 0
-71 -18 -20 -22 0
-71 -26 -28 -30 0
-71 -34 -36 -38 0
-71 -42 -44 -46 0
-71 -50 -52 -54 0
-71 -2 -6 -8 0
-71 -10 -14 -16 0
-71 -18 -22 -24 0
-71 -26 -30 -32 0
-71 -34 -38 -40 0
-71 -42 -46 -48 0
-71 -50 -54 -56 0
-71 -3 -4 -5 0
-71 -11 -12 -13 0
-71 -19 -20 -21 0
-71 -27 -28 -29 0
-71 -35 -36 -37 0
-71 -43 -44 -45 0
-71 -51 -52 -53 0
-71 -3 -5 -7 0
-71 -11 -13 -15 0
-71 -19 -21 -23 0
-71 -27 -29 -31 0
-71 -35 -37 -39 0
-71 -43 -45 -47 0
-71 -51 -53 -55 0
-71 -1 -5 -9 -13 0
-71 -1 -6 -9 -14 0
-71 -1 -7 -9 -15 0
-71 -1 -8 -9 -16 0
-71 -2 -3 -10 -11 0
-71 -2 -4 -10 -12 0
-71 -2 -6 -10 -14 0
-71 -2 -8 -10 -16 0
-71 -3 -4 -11 -12 0
-71 -3 -5 -11 -13 0
-71 -3 -7 -11 -15 0
-71 -4 -5 -12 -13 0
-71 -4 -6 -12 -14 0
-71 -5 -7 -13 -15 0
-71 -6 -8 -14 -16 0
-71 -7 -8 -15 -16 0
-71 -1 -5 -41 -45 0
-71 -1 -6 -41 -46 0
-71 -1 -7 -41 -47 0
-71 -1 -8 -41 -48 0
-71 -2 -3 -42 -43 0
-71 -2 -4 -42 -44 0
-71 -2 -6 -42 -46 0
-71 -2 -8 -42 -48 0
-71 -3 -4 -43 -44 0
-71 -3 -5 -43 -45 0
-71 -3 -7 -43 -47 0
-71 -4 -5 -44 -45 0
-71 -4 -6 -44 -46 0
-71 -5 -7 -45 -47 0
-71 -6 -8 -46 -48 0
-71 -7 -8 -47 -48 0
-71 -9 -13 -49 -53 0
-71 -9 -14 -49 -54 0
-71 -9 -15 -49 -55 0
-71 -9 -16 -49 -56 0
-71 -10 -11 -50 -51 0
-71 -10 -12 -50 -52 0
-71 -10 -14 -50 -54 0
-71 -10 -16 -50 -56 0
-71 -11 -12 -51 -52 0
-71 -11 -13 -51 -53 0
-71 -11 -15 -51 -55 0
-71 -12 -13 -52 -53 0
-71 -12 -14 -52 -54 0
-71 -13 -15 -53 -55 0
-71 -14 -16 -54 -56 0
-71 -15 -16 -55 -56 0
-71 -17 -21 -25 -29 0
-71 -17 -22 -25 -30 0
-71 -17 -23 -25 -31 0
-71 -17 -24 -25 -32 0
-71 -18 -19 -26 -27 0
-71 -18 -20 -26 -28 0
-71 -18 -22 -26 -30 0
-71 -18 -24 -26 -32 0
-71 -19 -20 -27 -28 0
-71 -19 -21 -27 -29 0
-71 -19 -23 -27 -31 0
-71 -20 -21 -28 -29 0
-71 -20 -22 -28 -30 0
-71 -21 -23 -29 -31 0
-71 -22 -24 -30 -32 0
-71 -23 -24 -31 -32 0
-71 -17 -21 -49 -53 0
-71 -17 -22 -49 -54 0
-71 -17 -23 -49 -55 0
-71 -17 -24 -49 -56 0
-71 -18 -19 -50 -51 0
-71 -18 -20 -50 -52 0
-71 -18 -22 -50 -54 0
-71 -18 -24 -50 -56 0
-71 -19 -20 -51 -52 0
-71 -19 -21 -51 -53 0
-71 -19 -23 -51 -55 0
-71 -20 -21 -52 -53 0
-71 -20 -22 -52 -54 0
-71 -21 -23 -53 -55 0
-71 -22 -24 -54 -56 0
-71 -23 -24 -55 -56 0
-71 -25 -29 -41 -45 0
-71 -25 -30 -41 -46 0
-71 -25 -31 -41 -47 0
-71 -25 -32 -41 -48 0
-71 -26 -27 -42 -43 0
-71 -26 -28 -42 -44 0
-71 -26 -30 -42 -46 0
-71 -26 -32 -42 -48 0
-71 -27 -28 -43 -44 0
-71 -27 -29 -43 -45 0
-71 -27 -31 -43 -47 0
-71 -28 -29 -44 -45 0
-71 -28 -30 -44 -46 0
-71 -29 -31 -45 -47 0
-71 -30 -32 -46 -48 0
-71 -31 -32 -47 -48 0
-71 -33 -37 -41 -45 0
-71 -33 -38 -41 -46 0
-71 -33 -39 -41 -47 0
-71 -33 -40 -41 -48 0
-71 -34 -35 -42 -43 0
-71 -34 -36 -42 -44 0
-71 -34 -38 -42 -46 0
-71 -34 -40 -42 -48 0
-71 -35 -36 -43 -44 0
-71 -35 -37 -43 -45 0
-71 -35 -39 -43 -47 0
-71 -36 -37 -44 -45 0
-71 -36 -38 -44 -46 0
-71 -37 -39 -45 -47 0
-71 -38 -40 -46 -48 0
-71 -39 -40 -47 -48 0
-71 -33 -37 -49 -53 0
-71 -33 -38 -49 -54 0
-71 -33 -39 -49 -55 0
-71 -33 -40 -49 -56 0
-71 -34 -35 -50 -51 0
-71 -34 -36 -50 -52 0
-71 -34 -38 -50 -54 0
-71 -34 -40 -50 -56 0
-71 -35 -36 -51 -52 0
-71 -35 -37 -51 -53 0
-71 -35 -39 -51 -55 0
-71 -36 -37 -52 -53 0
-71 -36 -38 -52 -54 0
-71 -37 -39 -53 -55 0
-71 -38 -40 -54 -56 0
-71 -39 -40 -55 -56 0
-71 1 17 33 0
-71 2 18 34 0
-71 3 19 35 0
-71 4 20 36 0
-71 5 21 37 0
-71 6 22 38 0
-71 7 23 39 0
-71 8 24 40 0
-71 1 25 33 0
-71 2 26 34 0
-71 3 27 35 0
-71 4 28 36 0
-71 5 29 37 0
-71 6 30 38 0
-71 7 31 39 0
-71 8 32 40 0
-71 1 25 49 0
-71 2 26 50 0
-71 3 27 51 0
-71 4 28 52 0
-71 5 29 53 0
-71 6 30 54 0
-71 7 31 55 0
-71 8 32 56 0
-71 9 17 33 0
-71 10 18 34 0
-71 11 19 35 0
-71 12 20 36 0
-71 13 21 37 0
-71 14 22 38 0
-71 15 23 39 0
-71 16 24 40 0
-71 9 17 41 0
-71 10 18 42 0
-71 11 19 43 0
-71 12 20 44 0
-71 13 21 45 0
-71 14 22 46 0
-71 15 23 47 0
-71 16 24 48 0
-71 9 25 33 0
-71 10 26 34 0
-71 11 27 35 0
-71 12 28 36 0
-71 13 29 37 0
-71 14 30 38 0
-71 15 31 39 0
-71 16 32 40 0
-71 1 2 17 18 0
-71 1 3 17 19 0
-71 1 4 17 20 0
-71 2 5 18 21 0
-71 2 7 18 23 0
-71 3 6 19 22 0
-71 3 8 19 24 0
-71 4 7 20 23 0
-71 4 8 20 24 0
-71 5 6 21 22 0
-71 5 8 21 24 0
-71 6 7 22 23 0
-71 1 2 25 26 0
-71 1 3 25 27 0
-71 1 4 25 28 0
-71 2 5 26 29 0
-71 2 7 26 31 0
-71 3 6 27 30 0
-71 3 8 27 32 0
-71 4 7 28 31 0
-71 4 8 28 32 0
-71 5 6 29 30 0
-71 5 8 29 32 0
-71 6 7 30 31 0
-71 1 2 33 34 0
-71 1 3 33 35 0
-71 1 4 33 36 0
-71 2 5 34 37 0
-71 2 7 34 39 0
-71 3 6 35 38 0
-71 3 8 35 40 0
-71 4 7 36 39 0
-71 4 8 36 40 0
-71 5 6 37 38 0
-71 5 8 37 40 0
-71 6 7 38 39 0
-71 1 2 49 50 0
-71 1 3 49 51 0
-71 1 4 49 52 0
-71 2 5 50 53 0
-71 2 7 50 55 0
-71 3 6 51 54 0
-71 3 8 51 56 0
-71 4 7 52 55 0
-71 4 8 52 56 0
-71 5 6 53 54 0
-71 5 8 53 56 0
-71 6 7 54 55 0
-71 9 10 17 18 0
-71 9 11 17 19 0
-71 9 12 17 20 0
-71 10 13 18 21 0
-71 10 15 18 23 0
-71 11 14 19 22 0
-71 11 16 19 24 0
-71 12 15 20 23 0
-71 12 16 20 24 0
-71 13 14 21 22 0
-71 13 16 21 24 0
-71 14 15 22 23 0
-71 9 10 25 26 0
-71 9 11 25 27 0
-71 9 12 25 28 0
-71 10 13 26 29 0
-71 10 15 26 31 0
-71 11 14 27 30 0
-71 11 16 27 32 0
-71 12 15 28 31 0
-71 12 16 28 32 0
-71 13 14 29 30 0
-71 13 16 29 32 0
-71 14 15 30 31 0
-71 9 10 33 34 0
-71 9 11 33 35 0
-71 9 12 33 36 0
-71 10 13 34 37 0
-71 10 15 34 39 0
-71 11 14 35 38 0
-71 11 16 35 40 0
-71 12 15 36 39 0
-71 12 16 36 40 0
-71 13 14 37 38 0
-71 13 16 37 40 0
-71 14 15 38 39 0
-71 9 10 41 42 0
-71 9 11 41 43 0
-71 9 12 41 44 0
-71 10 13 42 45 0
-71 10 15 42 47 0
-71 11 14 43 46 0
-71 11 16 43 48 0
-71 12 15 44 47 0
-71 12 16 44 48 0
-71 13 14 45 46 0
-71 13 16 45 48 0
-71 14 15 46 47 0
-71 17 18 33 34 0
-71 17 19 33 35 0
-71 17 20 33 36 0
-71 18 21 34 37 0
-71 18 23 34 39 0
-71 19 22 35 38 0
-71 19 24 35 40 0
-71 20 23 36 39 0
-71 20 24 36 40 0
-71 21 22 37 38 0
-71 21 24 37 40 0
-71 22 23 38 39 0
-71 17 18 41 42 0
-71 17 19 41 43 0
-71 17 20 41 44 0
-71 18 21 42 45 0
-71 18 23 42 47 0
-71 19 22 43 46 0
-71 19 24 43 48 0
-71 20 23 44 47 0
-71 20 24 44 48 0
-71 21 22 45 46 0
-71 21 24 45 48 0
-71 22 23 46 47 0
-71 25 26 33 34 0
-71 25 27 33 35 0
-71 25 28 33 36 0
-71 26 29 34 37 0
-71 26 31 34 39 0
-71 27 30 35 38 0
-71 27 32 35 40 0
-71 28 31 36 39 0
-71 28 32 36 40 0
-71 29 30 37 38 0
-71 29 32 37 40 0
-71 30 31 38 39 0
-71 25 26 49 50 0
-71 25 27 49 51 0
-71 25 28 49 52 0
-71 26 29 50 53 0
-71 26 31 50 55 0
-71 27 30 51 54 0
-71 27 32 51 56 0
-71 28 31 52 55 0
-71 28 32 52 56 0
-71 29 30 53 54 0
-71 29 32 53 56 0
-71 30 31 54 55 0
-71 41 42 49 50 0
-71 41 43 49 51 0
-71 41 44 49 52 0
-71 42 45 50 53 0
-71 42 47 50 55 0
-71 43 46 51 54 0
-71 43 48 51 56 0
-71 44 47 52 55 0
-71 44 48 52 56 0
-71 45 46 53 54 0
-71 45 48 53 56 0
-71 46 47 54 55 0
-72 -1 -2 -3 0
-72 -9 -10 -11 0
-72 -17 -18 -19 0
-72 -25 -26 -27 0
-72 -33 -34 -35 0
-72 -41 -42 -43 0
-72 -49 -50 -51 0
-72 -1 -2 -4 0
-72 -9 -10 -12 0
-72 -17 -18 -20 0
-72 -25 -26 -28 0
-72 -33 -34 -36 0
-72 -41 -42 -44 0
-72 -49 -50 -52 0
-72 -1 -3 -6 0
-72 -9 -11 -14 0
-72 -17 -19 -22 0
-72 -25 -27 -30 0
-72 -33 -35 -38 0
-72 -41 -43 -46 0
-72 -49 -51 -54 0
-72 -1 -4 -7 0
-72 -9 -12 -15 0
-72 -17 -20 -23 0
-72 -25 -28 -31 0
-72 -33 -36 -39 0
-72 -41 -44 -47 0
-72 -49 -52 -55 0
-72 -1 -6 -7 0
-72 -9 -14 -15 0
-72 -17 -22 -23 0
-72 -25 -30 -31 0
-72 -33 -38 -39 0
-72 -41 -46 -47 0
-72 -49 -54 -55 0
-72 -2 -3 -8 0
-72 -10 -11 -16 0
-72 -18 -19 -24 0
-72 -26 -27 -32 0
-72 -34 -35 -40 0
-72 -42 -43 -48 0
-72 -50 -51 -56 0
-72 -2 -4 -5 0
-72 -10 -12 -13 0
-72 -18 -20 -21 0
-72 -26 -28 -29 0
-72 -34 -36 -37 0
-72 -42 -44 -45 0
-72 -50 -52 -53 0
-72 -2 -5 -8 0
-72 -10 -13 -16 0
-72 -18 -21 -24 0
-72 -26 -29 -32 0
-72 -34 -37 -40 0
-72 -42 -45 -48 0
-72 -50 -53 -56 0
-72 -3 -6 -8 0
-72 -11 -14 -16 0
-72 -19 -22 -24 0
-72 -27 -30 -32 0
-72 -35 -38 -40 0
-72 -43 -46 -48 0
-72 -51 -54 -56 0
-72 -4 -5 -7 0
-72 -12 -13 -15 0
-72 -20 -21 -23 0
-72 -28 -29 -31 0
-72 -36 -37 -39 0
-72 -44 -45 -47 0
-72 -52 -53 -55 0
-72 -1 -2 -9 -10 0
-72 -1 -3 -9 -11 0
-72 -1 -4 -9 -12 0
-72 -1 -6 -9 -14 0
-72 -1 -7 -9 -15 0
-72 -2 -3 -10 -11 0
-72 -2 -4 -10 -12 0
-72 -2 -5 -10 -13 0
-72 -2 -8 -10 -16 0
-72 -3 -6 -11 -14 0
-72 -3 -8 -11 -16 0
-72 -4 -5 -12 -13 0
-72 -4 -7 -12 -15 0
-72 -5 -7 -13 -15 0
-72 -5 -8 -13 -16 0
-72 -6 -7 -14 -15 0
-72 -6 -8 -14 -16 0
-72 -17 -18 -25 -26 0
-72 -17 -19 -25 -27 0
-72 -17 -20 -25 -28 0
-72 -17 -22 -25 -30 0
-72 -17 -23 -25 -31 0
-72 -18 -19 -26 -27 0
-72 -18 -20 -26 -28 0
-72 -18 -21 -26 -29 0
-72 -18 -24 -26 -32 0
-72 -19 -22 -27 -30 0
-72 -19 -24 -27 -32 0
-72 -20 -21 -28 -29 0
-72 -20 -23 -28 -31 0
-72 -21 -23 -29 -31 0
-72 -21 -24 -29 -32 0
-72 -22 -23 -30 -31 0
-72 -22 -24 -30 -32 0
-72 -17 -18 -33 -34 0
-72 -17 -19 -33 -35 0
-72 -17 -20 -33 -36 0
-72 -17 -22 -33 -38 0
-72 -17 -23 -33 -39 0
-72 -18 -19 -34 -35 0
-72 -18 -20 -34 -36 0
-72 -18 -21 -34 -37 0
-72 -18 -24 -34 -40 0
-72 -19 -22 -35 -38 0
-72 -19 -24 -35 -40 0
-72 -20 -21 -36 -37 0
-72 -20 -23 -36 -39 0
-72 -21 -23 -37 -39 0
-72 -21 -24 -37 -40 0
-72 -22 -23 -38 -39 0
-72 -22 -24 -38 -40 0
-72 -25 -26 -41 -42 0
-72 -25 -27 -41 -43 0
-72 -25 -28 -41 -44 0
-72 -25 -30 -41 -46 0
-72 -25 -31 -41 -47 0
-72 -26 -27 -42 -43 0
-72 -26 -28 -42 -44 0
-72 -26 -29 -42 -45 0
-72 -26 -32 -42 -48 0
-72 -27 -30 -43 -46 0
-72 -27 -32 -43 -48 0
-72 -28 -29 -44 -45 0
-72 -28 -31 -44 -47 0
-72 -29 -31 -45 -47 0
-72 -29 -32 -45 -48 0
-72 -30 -31 -46 -47 0
-72 -30 -32 -46 -48 0
-72 -33 -34 -49 -50 0
-72 -33 -35 -49 -51 0
-72 -33 -36 -49 -52 0
-72 -33 -38 -49 -54 0
-72 -33 -39 -49 -55 0
-72 -34 -35 -50 -51 0
-72 -34 -36 -50 -52 0
-72 -34 -37 -50 -53 0
-72 -34 -40 -50 -56 0
-72 -35 -38 -51 -54 0
-72 -35 -40 -51 -56 0
-72 -36 -37 -52 -53 0
-72 -36 -39 -52 -55 0
-72 -37 -39 -53 -55 0
-72 -37 -40 -53 -56 0
-72 -38 -39 -54 -55 0
-72 -38 -40 -54 -56 0
-72 -41 -42 -49 -50 0
-72 -41 -43 -49 -51 0
-72 -41 -44 -49 -52 0
-72 -41 -46 -49 -54 0
-72 -41 -47 -49 -55 0
-72 -42 -43 -50 -51 0
-72 -42 -44 -50 -52 0
-72 -42 -45 -50 -53 0
-72 -42 -48 -50 -56 0
-72 -43 -46 -51 -54 0
-72 -43 -48 -51 -56 0
-72 -44 -45 -52 -53 0
-72 -44 -47 -52 -55 0
-72 -45 -47 -53 -55 0
-72 -45 -48 -53 -56 0
-72 -46 -47 -54 -55 0
-72 -46 -48 -54 -56 0
-72 1 17 41 0
-72 2 18 42 0
-72 3 19 43 0
-72 4 20 44 0
-72 5 21 45 0
-72 6 22 46 0
-72 7 23 47 0
-72 8 24 48 0
-72 1 17 49 0
-72 2 18 50 0
-72 3 19 51 0
-72 4 20 52 0
-72 5 21 53 0
-72 6 22 54 0
-72 7 23 55 0
-72 8 24 56 0
-72 1 25 33 0
-72 2 26 34 0
-72 3 27 35 0
-72 4 28 36 0
-72 5 29 37 0
-72 6 30 38 0
-72 7 31 39 0
-72 8 32 40 0
-72 1 25 49 0
-72 2 26 50 0
-72 3 27 51 0
-72 4 28 52 0
-72 5 29 53 0
-72 6 30 54 0
-72 7 31 55 0
-72 8 32 56 0
-72 1 33 41 0
-72 2 34 42 0
-72 3 35 43 0
-72 4 36 44 0
-72 5 37 45 0
-72 6 38 46 0
-72 7 39 47 0
-72 8 40 48 0
-72 9 17 41 0
-72 10 18 42 0
-72 11 19 43 0
-72 12 20 44 0
-72 13 21 45 0
-72 14 22 46 0
-72 15 23 47 0
-72 16 24 48 0
-72 9 17 49 0
-72 10 18 50 0
-72 11 19 51 0
-72 12 20 52 0
-72 13 21 53 0
-72 14 22 54 0
-72 15 23 55 0
-72 16 24 56 0
-72 9 25 33 0
-72 10 26 34 0
-72 11 27 35 0
-72 12 28 36 0
-72 13 29 37 0
-72 14 30 38 0
-72 15 31 39 0
-72 16 32 40 0
-72 9 25 49 0
-72 10 26 50 0
-72 11 27 51 0
-72 12 28 52 0
-72 13 29 53 0
-72 14 30 54 0
-72 15 31 55 0
-72 16 32 56 0
-72 9 33 41 0
-72 10 34 42 0
-72 11 35 43 0
-72 12 36 44 0
-72 13 37 45 0
-72 14 38 46 0
-72 15 39 47 0
-72 16 40 48 0
-72 1 5 17 21 0
-72 1 8 17 24 0
-72 2 6 18 22 0
-72 2 7 18 23 0
-72 3 4 19 20 0
-72 3 5 19 21 0
-72 3 7 19 23 0
-72 4 6 20 22 0
-72 4 8 20 24 0
-72 5 6 21 22 0
-72 7 8 23 24 0
-72 1 5 25 29 0
-72 1 8 25 32 0
-72 2 6 26 30 0
-72 2 7 26 31 0
-72 3 4 27 28 0
-72 3 5 27 29 0
-72 3 7 27 31 0
-72 4 6 28 30 0
-72 4 8 28 32 0
-72 5 6 29 30 0
-72 7 8 31 32 0
-72 1 5 33 37 0
-72 1 8 33 40 0
-72 2 6 34 38 0
-72 2 7 34 39 0
-72 3 4 35 36 0
-72 3 5 35 37 0
-72 3 7 35 39 0
-72 4 6 36 38 0
-72 4 8 36 40 0
-72 5 6 37 38 0
-72 7 8 39 40 0
-72 1 5 41 45 0
-72 1 8 41 48 0
-72 2 6 42 46 0
-72 2 7 42 47 0
-72 3 4 43 44 0
-72 3 5 43 45 0
-72 3 7 43 47 0
-72 4 6 44 46 0
-72 4 8 44 48 0
-72 5 6 45 46 0
-72 7 8 47 48 0
-72 1 5 49 53 0
-72 1 8 49 56 0
-72 2 6 50 54 0
-72 2 7 50 55 0
-72 3 4 51 52 0
-72 3 5 51 53 0
-72 3 7 51 55 0
-72 4 6 52 54 0
-72 4 8 52 56 0
-72 5 6 53 54 0
-72 7 8 55 56 0
-72 9 13 17 21 0
-72 9 16 17 24 0
-72 10 14 18 22 0
-72 10 15 18 23 0
-72 11 12 19 20 0
-72 11 13 19 21 0
-72 11 15 19 23 0
-72 12 14 20 22 0
-72 12 16 20 24 0
-72 13 14 21 22 0
-72 15 16 23 24 0
-72 9 13 25 29 0
-72 9 16 25 32 0
-72 10 14 26 30 0
-72 10 15 26 31 0
-72 11 12 27 28 0
-72 11 13 27 29 0
-72 11 15 27 31 0
-72 12 14 28 30 0
-72 12 16 28 32 0
-72 13 14 29 30 0
-72 15 16 31 32 0
-72 9 13 33 37 0
-72 9 16 33 40 0
-72 10 14 34 38 0
-72 10 15 34 39 0
-72 11 12 35 36 0
-72 11 13 35 37 0
-72 11 15 35 39 0
-72 12 14 36 38 0
-72 12 16 36 40 0
-72 13 14 37 38 0
-72 15 16 39 40 0
-72 9 13 41 45 0
-72 9 16 41 48 0
-72 10 14 42 46 0
-72 10 15 42 47 0
-72 11 12 43 44 0
-72 11 13 43 45 0
-72 11 15 43 47 0
-72 12 14 44 46 0
-72 12 16 44 48 0
-72 13 14 45 46 0
-72 15 16 47 48 0
-72 9 13 49 53 0
-72 9 16 49 56 0
-72 10 14 50 54 0
-72 10 15 50 55 0
-72 11 12 51 52 0
-72 11 13 51 53 0
-72 11 15 51 55 0
-72 12 14 52 54 0
-72 12 16 52 56 0
-72 13 14 53 54 0
-72 15 16 55 56 0
-72 17 21 41 45 0
-72 17 24 41 48 0
-72 18 22 42 46 0
-72 18 23 42 47 0
-72 19 20 43 44 0
-72 19 21 43 45 0
-72 19 23 43 47 0
-72 20 22 44 46 0
-72 20 24 44 48 0
-72 21 22 45 46 0
-72 23 24 47 48 0
-72 17 21 49 53 0
-72 17 24 49 56 0
-72 18 22 50 54 0
-72 18 23 50 55 0
-72 19 20 51 52 0
-72 19 21 51 53 0
-72 19 23 51 55 0
-72 20 22 52 54 0
-72 20 24 52 56 0
-72 21 22 53 54 0
-72 23 24 55 56 0
-72 25 29 33 37 0
-72 25 32 33 40 0
-72 26 30 34 38 0
-72 26 31 34 39 0
-72 27 28 35 36 0
-72 27 29 35 37 0
-72 27 31 35 39 0
-72 28 30 36 38 0
-72 28 32 36 40 0
-72 29 30 37 38 0
-72 31 32 39 40 0
-72 25 29 49 53 0
-72 25 32 49 56 0
-72 26 30 50 54 0
-72 26 31 50 55 0
-72 27 28 51 52 0
-72 27 29 51 53 0
-72 27 31 51 55 0
-72 28 30 52 54 0
-72 28 32 52 56 0
-72 29 30 53 54 0
-72 31 32 55 56 0
-72 33 37 41 45 0
-72 33 40 41 48 0
-72 34 38 42 46 0
-72 34 39 42 47 0
-72 35 36 43 44 0
-72 35 37 43 45 0
-72 35 39 43 47 0
-72 36 38 44 46 0
-72 36 40 44 48 0
-72 37 38 45 46 0
-72 39 40 47 48 0
-73 -1 -3 -7 0
-73 -9 -11 -15 0
-73 -17 -19 -23 0
-73 -25 -27 -31 0
-73 -33 -35 -39 0
-73 -41 -43 -47 0
-73 -49 -51 -55 0
-73 -1 -3 -8 0
-73 -9 -11 -16 0
-73 -17 -19 -24 0
-73 -25 -27 -32 0
-73 -33 -35 -40 0
-73 -41 -43 -48 0
-73 -49 -51 -56 0
-73 -1 -4 -6 0
-73 -9 -12 -14 0
-73 -17 -20 -22 0
-73 -25 -28 -30 0
-73 -33 -36 -38 0
-73 -41 -44 -46 0
-73 -49 -52 -54 0
-73 -1 -4 -8 0
-73 -9 -12 -16 0
-73 -17 -20 -24 0
-73 -25 -28 -32 0
-73 -33 -36 -40 0
-73 -41 -44 -48 0
-73 -49 -52 -56 0
-73 -1 -6 -7 0
-73 -9 -14 -15 0
-73 -17 -22 -23 0
-73 -25 -30 -31 0
-73 -33 -38 -39 0
-73 -41 -46 -47 0
-73 -49 -54 -55 0
-73 -2 -3 -5 0
-73 -10 -11 -13 0
-73 -18 -19 -21 0
-73 -26 -27 -29 0
-73 -34 -35 -37 0
-73 -42 -43 -45 0
-73 -50 -51 -53 0
-73 -2 -3 -7 0
-73 -10 -11 -15 0
-73 -18 -19 -23 0
-73 -26 -27 -31 0
-73 -34 -35 -39 0
-73 -42 -43 -47 0
-73 -50 -51 -55 0
-73 -2 -4 -5 0
-73 -10 -12 -13 0
-73 -18 -20 -21 0
-73 -26 -28 -29 0
-73 -34 -36 -37 0
-73 -42 -44 -45 0
-73 -50 -52 -53 0
-73 -2 -4 -6 0
-73 -10 -12 -14 0
-73 -18 -20 -22 0
-73 -26 -28 -30 0
-73 -34 -36 -38 0
-73 -42 -44 -46 0
-73 -50 -52 -54 0
-73 -2 -6 -7 0
-73 -10 -14 -15 0
-73 -18 -22 -23 0
-73 -26 -30 -31 0
-73 -34 -38 -39 0
-73 -42 -46 -47 0
-73 -50 -54 -55 0
-73 -3 -5 -8 0
-73 -11 -13 -16 0
-73 -19 -21 -24 0
-73 -27 -29 -32 0
-73 -35 -37 -40 0
-73 -43 -45 -48 0
-73 -51 -53 -56 0
-73 -4 -5 -8 0
-73 -12 -13 -16 0
-73 -20 -21 -24 0
-73 -28 -29 -32 0
-73 -36 -37 -40 0
-73 -44 -45 -48 0
-73 -52 -53 -56 0
-73 -1 -3 -9 -11 0
-73 -1 -4 -9 -12 0
-73 -1 -6 -9 -14 0
-73 -1 -7 -9 -15 0
-73 -1 -8 -9 -16 0
-73 -2 -3 -10 -11 0
-73 -2 -4 -10 -12 0
-73 -2 -5 -10 -13 0
-73 -2 -6 -10 -14 0
-73 -2 -7 -10 -15 0
-73 -3 -5 -11 -13 0
-73 -3 -7 -11 -15 0
-73 -3 -8 -11 -16 0
-73 -4 -5 -12 -13 0
-73 -4 -6 -12 -14 0
-73 -4 -8 -12 -16 0
-73 -5 -8 -13 -16 0
-73 -6 -7 -14 -15 0
-73 -17 -19 -25 -27 0
-73 -17 -20 -25 -28 0
-73 -17 -22 -25 -30 0
-73 -17 -23 -25 -31 0
-73 -17 -24 -25 -32 0
-73 -18 -19 -26 -27 0
-73 -18 -20 -26 -28 0
-73 -18 -21 -26 -29 0
-73 -18 -22 -26 -30 0
-73 -18 -23 -26 -31 0
-73 -19 -21 -27 -29 0
-73 -19 -23 -27 -31 0
-73 -19 -24 -27 -32 0
-73 -20 -21 -28 -29 0
-73 -20 -22 -28 -30 0
-73 -20 -24 -28 -32 0
-73 -21 -24 -29 -32 0
-73 -22 -23 -30 -31 0
-73 -17 -19 -33 -35 0
-73 -17 -20 -33 -36 0
-73 -17 -22 -33 -38 0
-73 -17 -23 -33 -39 0
-73 -17 -24 -33 -40 0
-73 -18 -19 -34 -35 0
-73 -18 -20 -34 -36 0
-73 -18 -21 -34 -37 0
-73 -18 -22 -34 -38 0
-73 -18 -23 -34 -39 0
-73 -19 -21 -35 -37 0
-73 -19 -23 -35 -39 0
-73 -19 -24 -35 -40 0
-73 -20 -21 -36 -37 0
-73 -20 -22 -36 -38 0
-73 -20 -24 -36 -40 0
-73 -21 -24 -37 -40 0
-73 -22 -23 -38 -39 0
-73 -25 -27 -41 -43 0
-73 -25 -28 -41 -44 0
-73 -25 -30 -41 -46 0
-73 -25 -31 -41 -47 0
-73 -25 -32 -41 -48 0
-73 -26 -27 -42 -43 0
-73 -26 -28 -42 -44 0
-73 -26 -29 -42 -45 0
-73 -26 -30 -42 -46 0
-73 -26 -31 -42 -47 0
-73 -27 -29 -43 -45 0
-73 -27 -31 -43 -47 0
-73 -27 -32 -43 -48 0
-73 -28 -29 -44 -45 0
-73 -28 -30 -44 -46 0
-73 -28 -32 -44 -48 0
-73 -29 -32 -45 -48 0
-73 -30 -31 -46 -47 0
-73 -33 -35 -49 -51 0
-73 -33 -36 -49 -52 0
-73 -33 -38 -49 -54 0
-73 -33 -39 -49 -55 0
-73 -33 -40 -49 -56 0
-73 -34 -35 -50 -51 0
-73 -34 -36 -50 -52 0
-73 -34 -37 -50 -53 0
-73 -34 -38 -50 -54 0
-73 -34 -39 -50 -55 0
-73 -35 -37 -51 -53 0
-73 -35 -39 -51 -55 0
-73 -35 -40 -51 -56 0
-73 -36 -37 -52 -53 0
-73 -36 -38 -52 -54 0
-73 -36 -40 -52 -56 0
-73 -37 -40 -53 -56 0
-73 -38 -39 -54 -55 0
-73 -41 -43 -49 -51 0
-73 -41 -44 -49 -52 0
-73 -41 -46 -49 -54 0
-73 -41 -47 -49 -55 0
-73 -41 -48 -49 -56 0
-73 -42 -43 -50 -51 0
-73 -42 -44 -50 -52 0
-73 -42 -45 -50 -53 0
-73 -42 -46 -50 -54 0
-73 -42 -47 -50 -55 0
-73 -43 -45 -51 -53 0
-73 -43 -47 -51 -55 0
-73 -43 -48 -51 -56 0
-73 -44 -45 -52 -53 0
-73 -44 -46 -52 -54 0
-73 -44 -48 -52 -56 0
-73 -45 -48 -53 -56 0
-73 -46 -47 -54 -55 0
-73 1 17 41 0
-73 2 18 42 0
-73 3 19 43 0
-73 4 20 44 0
-73 5 21 45 0
-73 6 22 46 0
-73 7 23 47 0
-73 8 24 48 0
-73 1 17 49 0
-73 2 18 50 0
-73 3 19 51 0
-73 4 20 52 0
-73 5 21 53 0
-73 6 22 54 0
-73 7 23 55 0
-73 8 24 56 0
-73 1 25 33 0
-73 2 26 34 0
-73 3 27 35 0
-73 4 28 36 0
-73 5 29 37 0
-73 6 30 38 0
-73 7 31 39 0
-73 8 32 40 0
-73 1 25 49 0
-73 2 26 50 0
-73 3 27 51 0
-73 4 28 52 0
-73 5 29 53 0
-73 6 30 54 0
-73 7 31 55 0
-73 8 32 56 0
-73 1 33 41 0
-73 2 34 42 0
-73 3 35 43 0
-73 4 36 44 0
-73 5 37 45 0
-73 6 38 46 0
-73 7 39 47 0
-73 8 40 48 0
-73 9 17 41 0
-73 10 18 42 0
-73 11 19 43 0
-73 12 20 44 0
-73 13 21 45 0
-73 14 22 46 0
-73 15 23 47 0
-73 16 24 48 0
-73 9 17 49 0
-73 10 18 50 0
-73 11 19 51 0
-73 12 20 52 0
-73 13 21 53 0
-73 14 22 54 0
-73 15 23 55 0
-73 16 24 56 0
-73 9 25 33 0
-73 10 26 34 0
-73 11 27 35 0
-73 12 28 36 0
-73 13 29 37 0
-73 14 30 38 0
-73 15 31 39 0
-73 16 32 40 0
-73 9 25 49 0
-73 10 26 50 0
-73 11 27 51 0
-73 12 28 52 0
-73 13 29 53 0
-73 14 30 54 0
-73 15 31 55 0
-73 16 32 56 0
-73 9 33 41 0
-73 10 34 42 0
-73 11 35 43 0
-73 12 36 44 0
-73 13 37 45 0
-73 14 38 46 0
-73 15 39 47 0
-73 16 40 48 0
-73 1 2 17 18 0
-73 1 5 17 21 0
-73 2 8 18 24 0
-73 3 4 19 20 0
-73 3 6 19 22 0
-73 4 7 20 23 0
-73 5 6 21 22 0
-73 5 7 21 23 0
-73 6 8 22 24 0
-73 7 8 23 24 0
-73 1 2 25 26 0
-73 1 5 25 29 0
-73 2 8 26 32 0
-73 3 4 27 28 0
-73 3 6 27 30 0
-73 4 7 28 31 0
-73 5 6 29 30 0
-73 5 7 29 31 0
-73 6 8 30 32 0
-73 7 8 31 32 0
-73 1 2 33 34 0
-73 1 5 33 37 0
-73 2 8 34 40 0
-73 3 4 35 36 0
-73 3 6 35 38 0
-73 4 7 36 39 0
-73 5 6 37 38 0
-73 5 7 37 39 0
-73 6 8 38 40 0
-73 7 8 39 40 0
-73 1 2 41 42 0
-73 1 5 41 45 0
-73 2 8 42 48 0
-73 3 4 43 44 0
-73 3 6 43 46 0
-73 4 7 44 47 0
-73 5 6 45 46 0
-73 5 7 45 47 0
-73 6 8 46 48 0
-73 7 8 47 48 0
-73 1 2 49 50 0
-73 1 5 49 53 0
-73 2 8 50 56 0
-73 3 4 51 52 0
-73 3 6 51 54 0
-73 4 7 52 55 0
-73 5 6 53 54 0
-73 5 7 53 55 0
-73 6 8 54 56 0
-73 7 8 55 56 0
-73 9 10 17 18 0
-73 9 13 17 21 0
-73 10 16 18 24 0
-73 11 12 19 20 0
-73 11 14 19 22 0
-73 12 15 20 23 0
-73 13 14 21 22 0
-73 13 15 21 23 0
-73 14 16 22 24 0
-73 15 16 23 24 0
-73 9 10 25 26 0
-73 9 13 25 29 0
-73 10 16 26 32 0
-73 11 12 27 28 0
-73 11 14 27 30 0
-73 12 15 28 31 0
-73 13 14 29 30 0
-73 13 15 29 31 0
-73 14 16 30 32 0
-73 15 16 31 32 0
-73 9 10 33 34 0
-73 9 13 33 37 0
-73 10 16 34 40 0
-73 11 12 35 36 0
-73 11 14 35 38 0
-73 12 15 36 39 0
-73 13 14 37 38 0
-73 13 15 37 39 0
-73 14 16 38 40 0
-73 15 16 39 40 0
-73 9 10 41 42 0
-73 9 13 41 45 0
-73 10 16 42 48 0
-73 11 12 43 44 0
-73 11 14 43 46 0
-73 12 15 44 47 0
-73 13 14 45 46 0
-73 13 15 45 47 0
-73 14 16 46 48 0
-73 15 16 47 48 0
-73 9 10 49 50 0
-73 9 13 49 53 0
-73 10 16 50 56 0
-73 11 12 51 52 0
-73 11 14 51 54 0
-73 12 15 52 55 0
-73 13 14 53 54 0
-73 13 15 53 55 0
-73 14 16 54 56 0
-73 15 16 55 56 0
-73 17 18 41 42 0
-73 17 21 41 45 0
-73 18 24 42 48 0
-73 19 20 43 44 0
-73 19 22 43 46 0
-73 20 23 44 47 0
-73 21 22 45 46 0
-73 21 23 45 47 0
-73 22 24 46 48 0
-73 23 24 47 48 0
-73 17 18 49 50 0
-73 17 21 49 53 0
-73 18 24 50 56 0
-73 19 20 51 52 0
-73 19 22 51 54 0
-73 20 23 52 55 0
-73 21 22 53 54 0
-73 21 23 53 55 0
-73 22 24 54 56 0
-73 23 24 55 56 0
-73 25 26 33 34 0
-73 25 29 33 37 0
-73 26 32 34 40 0
-73 27 28 35 36 0
-73 27 30 35 38 0
-73 28 31 36 39 0
-73 29 30 37 38 0
-73 29 31 37 39 0
-73 30 32 38 40 0
-73 31 32 39 40 0
-73 25 26 49 50 0
-73 25 29 49 53 0
-73 26 32 50 56 0
-73 27 28 51 52 0
-73 27 30 51 54 0
-73 28 31 52 55 0
-73 29 30 53 54 0
-73 29 31 53 55 0
-73 30 32 54 56 0
-73 31 32 55 56 0
-73 33 34 41 42 0
-73 33 37 41 45 0
-73 34 40 42 48 0
-73 35 36 43 44 0
-73 35 38 43 46 0
-73 36 39 44 47 0
-73 37 38 45 46 0
-73 37 39 45 47 0
-73 38 40 46 48 0
-73 39 40 47 48 0
-74 -1 -5 -7 0
-74 -9 -13 -15 0
-74 -17 -21 -23 0
-74 -25 -29 -31 0
-74 -33 -37 -39 0
-74 -41 -45 -47 0
-74 -49 -53 -55 0
-74 -1 -6 -8 0
-74 -9 -14 -16 0
-74 -17 -22 -24 0
-74 -25 -30 -32 0
-74 -33 -38 -40 0
-74 -41 -46 -48 0
-74 -49 -54 -56 0
-74 -1 -7 -8 0
-74 -9 -15 -16 0
-74 -17 -23 -24 0
-74 -25 -31 -32 0
-74 -33 -39 -40 0
-74 -41 -47 -48 0
-74 -49 -55 -56 0
-74 -2 -3 -4 0
-74 -10 -11 -12 0
-74 -18 -19 -20 0
-74 -26 -27 -28 0
-74 -34 -35 -36 0
-74 -42 -43 -44 0
-74 -50 -51 -52 0
-74 -2 -4 -6 0
-74 -10 -12 -14 0
-74 -18 -20 -22 0
-74 -26 -28 -30 0
-74 -34 -36 -38 0
-74 -42 -44 -46 0
-74 -50 -52 -54 0
-74 -2 -6 -8 0
-74 -10 -14 -16 0
-74 -18 -22 -24 0
-74 -26 -30 -32 0
-74 -34 -38 -40 0
-74 -42 -46 -48 0
-74 -50 -54 -56 0
-74 -3 -4 -5 0
-74 -11 -12 -13 0
-74 -19 -20 -21 0
-74 -27 -28 -29 0
-74 -35 -36 -37 0
-74 -43 -44 -45 0
-74 -51 -52 -53 0
-74 -3 -5 -7 0
-74 -11 -13 -15 0
-74 -19 -21 -23 0
-74 -27 -29 -31 0
-74 -35 -37 -39 0
-74 -43 -45 -47 0
-74 -51 -53 -55 0
-74 -1 -5 -9 -13 0
-74 -1 -6 -9 -14 0
-74 -1 -7 -9 -15 0
-74 -1 -8 -9 -16 0
-74 -2 -3 -10 -11 0
-74 -2 -4 -10 -12 0
-74 -2 -6 -10 -14 0
-74 -2 -8 -10 -16 0
-74 -3 -4 -11 -12 0
-74 -3 -5 -11 -13 0
-74 -3 -7 -11 -15 0
-74 -4 -5 -12 -13 0
-74 -4 -6 -12 -14 0
-74 -5 -7 -13 -15 0
-74 -6 -8 -14 -16 0
-74 -7 -8 -15 -16 0
-74 -17 -21 -25 -29 0
-74 -17 -22 -25 -30 0
-74 -17 -23 -25 -31 0
-74 -17 -24 -25 -32 0
-74 -18 -19 -26 -27 0
-74 -18 -20 -26 -28 0
-74 -18 -22 -26 -30 0
-74 -18 -24 -26 -32 0
-74 -19 -20 -27 -28 0
-74 -19 -21 -27 -29 0
-74 -19 -23 -27 -31 0
-74 -20 -21 -28 -29 0
-74 -20 -22 -28 -30 0
-74 -21 -23 -29 -31 0
-74 -22 -24 -30 -32 0
-74 -23 -24 -31 -32 0
-74 -17 -21 -33 -37 0
-74 -17 -22 -33 -38 0
-74 -17 -23 -33 -39 0
-74 -17 -24 -33 -40 0
-74 -18 -19 -34 -35 0
-74 -18 -20 -34 -36 0
-74 -18 -22 -34 -38 0
-74 -18 -24 -34 -40 0
-74 -19 -20 -35 -36 0
-74 -19 -21 -35 -37 0
-74 -19 -23 -35 -39 0
-74 -20 -21 -36 -37 0
-74 -20 -22 -36 -38 0
-74 -21 -23 -37 -39 0
-74 -22 -24 -38 -40 0
-74 -23 -24 -39 -40 0
-74 -25 -29 -41 -45 0
-74 -25 -30 -41 -46 0
-74 -25 -31 -41 -47 0
-74 -25 -32 -41 -48 0
-74 -26 -27 -42 -43 0
-74 -26 -28 -42 -44 0
-74 -26 -30 -42 -46 0
-74 -26 -32 -42 -48 0
-74 -27 -28 -43 -44 0
-74 -27 -29 -43 -45 0
-74 -27 -31 -43 -47 0
-74 -28 -29 -44 -45 0
-74 -28 -30 -44 -46 0
-74 -29 -31 -45 -47 0
-74 -30 -32 -46 -48 0
-74 -31 -32 -47 -48 0
-74 -33 -37 -49 -53 0
-74 -33 -38 -49 -54 0
-74 -33 -39 -49 -55 0
-74 -33 -40 -49 -56 0
-74 -34 -35 -50 -51 0
-74 -34 -36 -50 -52 0
-74 -34 -38 -50 -54 0
-74 -34 -40 -50 -56 0
-74 -35 -36 -51 -52 0
-74 -35 -37 -51 -53 0
-74 -35 -39 -51 -55 0
-74 -36 -37 -52 -53 0
-74 -36 -38 -52 -54 0
-74 -37 -39 -53 -55 0
-74 -38 -40 -54 -56 0
-74 -39 -40 -55 -56 0
-74 -41 -45 -49 -53 0
-74 -41 -46 -49 -54 0
-74 -41 -47 -49 -55 0
-74 -41 -48 -49 -56 0
-74 -42 -43 -50 -51 0
-74 -42 -44 -50 -52 0
-74 -42 -46 -50 -54 0
-74 -42 -48 -50 -56 0
-74 -43 -44 -51 -52 0
-74 -43 -45 -51 -53 0
-74 -43 -47 -51 -55 0
-74 -44 -45 -52 -53 0
-74 -44 -46 -52 -54 0
-74 -45 -47 -53 -55 0
-74 -46 -48 -54 -56 0
-74 -47 -48 -55 -56 0
-74 1 17 41 0
-74 2 18 42 0
-74 3 19 43 0
-74 4 20 44 0
-74 5 21 45 0
-74 6 22 46 0
-74 7 23 47 0
-74 8 24 48 0
-74 1 17 49 0
-74 2 18 50 0
-74 3 19 51 0
-74 4 20 52 0
-74 5 21 53 0
-74 6 22 54 0
-74 7 23 55 0
-74 8 24 56 0
-74 1 25 33 0
-74 2 26 34 0
-74 3 27 35 0
-74 4 28 36 0
-74 5 29 37 0
-74 6 30 38 0
-74 7 31 39 0
-74 8 32 40 0
-74 1 25 49 0
-74 2 26 50 0
-74 3 27 51 0
-74 4 28 52 0
-74 5 29 53 0
-74 6 30 54 0
-74 7 31 55 0
-74 8 32 56 0
-74 1 33 41 0
-74 2 34 42 0
-74 3 35 43 0
-74 4 36 44 0
-74 5 37 45 0
-74 6 38 46 0
-74 7 39 47 0
-74 8 40 48 0
-74 9 17 41 0
-74 10 18 42 0
-74 11 19 43 0
-74 12 20 44 0
-74 13 21 45 0
-74 14 22 46 0
-74 15 23 47 0
-74 16 24 48 0
-74 9 17 49 0
-74 10 18 50 0
-74 11 19 51 0
-74 12 20 52 0
-74 13 21 53 0
-74 14 22 54 0
-74 15 23 55 0
-74 16 24 56 0
-74 9 25 33 0
-74 10 26 34 0
-74 11 27 35 0
-74 12 28 36 0
-74 13 29 37 0
-74 14 30 38 0
-74 15 31 39 0
-74 16 32 40 0
-74 9 25 49 0
-74 10 26 50 0
-74 11 27 51 0
-74 12 28 52 0
-74 13 29 53 0
-74 14 30 54 0
-74 15 31 55 0
-74 16 32 56 0
-74 9 33 41 0
-74 10 34 42 0
-74 11 35 43 0
-74 12 36 44 0
-74 13 37 45 0
-74 14 38 46 0
-74 15 39 47 0
-74 16 40 48 0
-74 1 2 17 18 0
-74 1 3 17 19 0
-74 1 4 17 20 0
-74 2 5 18 21 0
-74 2 7 18 23 0
-74 3 6 19 22 0
-74 3 8 19 24 0
-74 4 7 20 23 0
-74 4 8 20 24 0
-74 5 6 21 22 0
-74 5 8 21 24 0
-74 6 7 22 23 0
-74 1 2 25 26 0
-74 1 3 25 27 0
-74 1 4 25 28 0
-74 2 5 26 29 0
-74 2 7 26 31 0
-74 3 6 27 30 0
-74 3 8 27 32 0
-74 4 7 28 31 0
-74 4 8 28 32 0
-74 5 6 29 30 0
-74 5 8 29 32 0
-74 6 7 30 31 0
-74 1 2 33 34 0
-74 1 3 33 35 0
-74 1 4 33 36 0
-74 2 5 34 37 0
-74 2 7 34 39 0
-74 3 6 35 38 0
-74 3 8 35 40 0
-74 4 7 36 39 0
-74 4 8 36 40 0
-74 5 6 37 38 0
-74 5 8 37 40 0
-74 6 7 38 39 0
-74 1 2 41 42 0
-74 1 3 41 43 0
-74 1 4 41 44 0
-74 2 5 42 45 0
-74 2 7 42 47 0
-74 3 6 43 46 0
-74 3 8 43 48 0
-74 4 7 44 47 0
-74 4 8 44 48 0
-74 5 6 45 46 0
-74 5 8 45 48 0
-74 6 7 46 47 0
-74 1 2 49 50 0
-74 1 3 49 51 0
-74 1 4 49 52 0
-74 2 5 50 53 0
-74 2 7 50 55 0
-74 3 6 51 54 0
-74 3 8 51 56 0
-74 4 7 52 55 0
-74 4 8 52 56 0
-74 5 6 53 54 0
-74 5 8 53 56 0
-74 6 7 54 55 0
-74 9 10 17 18 0
-74 9 11 17 19 0
-74 9 12 17 20 0
-74 10 13 18 21 0
-74 10 15 18 23 0
-74 11 14 19 22 0
-74 11 16 19 24 0
-74 12 15 20 23 0
-74 12 16 20 24 0
-74 13 14 21 22 0
-74 13 16 21 24 0
-74 14 15 22 23 0
-74 9 10 25 26 0
-74 9 11 25 27 0
-74 9 12 25 28 0
-74 10 13 26 29 0
-74 10 15 26 31 0
-74 11 14 27 30 0
-74 11 16 27 32 0
-74 12 15 28 31 0
-74 12 16 28 32 0
-74 13 14 29 30 0
-74 13 16 29 32 0
-74 14 15 30 31 0
-74 9 10 33 34 0
-74 9 11 33 35 0
-74 9 12 33 36 0
-74 10 13 34 37 0
-74 10 15 34 39 0
-74 11 14 35 38 0
-74 11 16 35 40 0
-74 12 15 36 39 0
-74 12 16 36 40 0
-74 13 14 37 38 0
-74 13 16 37 40 0
-74 14 15 38 39 0
-74 9 10 41 42 0
-74 9 11 41 43 0
-74 9 12 41 44 0
-74 10 13 42 45 0
-74 10 15 42 47 0
-74 11 14 43 46 0
-74 11 16 43 48 0
-74 12 15 44 47 0
-74 12 16 44 48 0
-74 13 14 45 46 0
-74 13 16 45 48 0
-74 14 15 46 47 0
-74 9 10 49 50 0
-74 9 11 49 51 0
-74 9 12 49 52 0
-74 10 13 50 53 0
-74 10 15 50 55 0
-74 11 14 51 54 0
-74 11 16 51 56 0
-74 12 15 52 55 0
-74 12 16 52 56 0
-74 13 14 53 54 0
-74 13 16 53 56 0
-74 14 15 54 55 0
-74 17 18 41 42 0
-74 17 19 41 43 0
-74 17 20 41 44 0
-74 18 21 42 45 0
-74 18 23 42 47 0
-74 19 22 43 46 0
-74 19 24 43 48 0
-74 20 23 44 47 0
-74 20 24 44 48 0
-74 21 22 45 46 0
-74 21 24 45 48 0
-74 22 23 46 47 0
-74 17 18 49 50 0
-74 17 19 49 51 0
-74 17 20 49 52 0
-74 18 21 50 53 0
-74 18 23 50 55 0
-74 19 22 51 54 0
-74 19 24 51 56 0
-74 20 23 52 55 0
-74 20 24 52 56 0
-74 21 22 53 54 0
-74 21 24 53 56 0
-74 22 23 54 55 0
-74 25 26 33 34 0
-74 25 27 33 35 0
-74 25 28 33 36 0
-74 26 29 34 37 0
-74 26 31 34 39 0
-74 27 30 35 38 0
-74 27 32 35 40 0
-74 28 31 36 39 0
-74 28 32 36 40 0
-74 29 30 37 38 0
-74 29 32 37 40 0
-74 30 31 38 39 0
-74 25 26 49 50 0
-74 25 27 49 51 0
-74 25 28 49 52 0
-74 26 29 50 53 0
-74 26 31 50 55 0
-74 27 30 51 54 0
-74 27 32 51 56 0
-74 28 31 52 55 0
-74 28 32 52 56 0
-74 29 30 53 54 0
-74 29 32 53 56 0
-74 30 31 54 55 0
-74 33 34 41 42 0
-74 33 35 41 43 0
-74 33 36 41 44 0
-74 34 37 42 45 0
-74 34 39 42 47 0
-74 35 38 43 46 0
-74 35 40 43 48 0
-74 36 39 44 47 0
-74 36 40 44 48 0
-74 37 38 45 46 0
-74 37 40 45 48 0
-74 38 39 46 47 0
-75 -1 -2 -3 0
-75 -9 -10 -11 0
-75 -17 -18 -19 0
-75 -25 -26 -27 0
-75 -33 -34 -35 0
-75 -41 -42 -43 0
-75 -49 -50 -51 0
-75 -1 -2 -4 0
-75 -9 -10 -12 0
-75 -17 -18 -20 0
-75 -25 -26 -28 0
-75 -33 -34 -36 0
-75 -41 -42 -44 0
-75 -49 -50 -52 0
-75 -1 -3 -6 0
-75 -9 -11 -14 0
-75 -17 -19 -22 0
-75 -25 -27 -30 0
-75 -33 -35 -38 0
-75 -41 -43 -46 0
-75 -49 -51 -54 0
-75 -1 -4 -7 0
-75 -9 -12 -15 0
-75 -17 -20 -23 0
-75 -25 -28 -31 0
-75 -33 -36 -39 0
-75 -41 -44 -47 0
-75 -49 -52 -55 0
-75 -1 -6 -7 0
-75 -9 -14 -15 0
-75 -17 -22 -23 0
-75 -25 -30 -31 0
-75 -33 -38 -39 0
-75 -41 -46 -47 0
-75 -49 -54 -55 0
-75 -2 -3 -8 0
-75 -10 -11 -16 0
-75 -18 -19 -24 0
-75 -26 -27 -32 0
-75 -34 -35 -40 0
-75 -42 -43 -48 0
-75 -50 -51 -56 0
-75 -2 -4 -5 0
-75 -10 -12 -13 0
-75 -18 -20 -21 0
-75 -26 -28 -29 0
-75 -34 -36 -37 0
-75 -42 -44 -45 0
-75 -50 -52 -53 0
-75 -2 -5 -8 0
-75 -10 -13 -16 0
-75 -18 -21 -24 0
-75 -26 -29 -32 0
-75 -34 -37 -40 0
-75 -42 -45 -48 0
-75 -50 -53 -56 0
-75 -3 -6 -8 0
-75 -11 -14 -16 0
-75 -19 -22 -24 0
-75 -27 -30 -32 0
-75 -35 -38 -40 0
-75 -43 -46 -48 0
-75 -51 -54 -56 0
-75 -4 -5 -7 0
-75 -12 -13 -15 0
-75 -20 -21 -23 0
-75 -28 -29 -31 0
-75 -36 -37 -39 0
-75 -44 -45 -47 0
-75 -52 -53 -55 0
-75 -1 -2 -9 -10 0
-75 -1 -3 -9 -11 0
-75 -1 -4 -9 -12 0
-75 -1 -6 -9 -14 0
-75 -1 -7 -9 -15 0
-75 -2 -3 -10 -11 0
-75 -2 -4 -10 -12 0
-75 -2 -5 -10 -13 0
-75 -2 -8 -10 -16 0
-75 -3 -6 -11 -14 0
-75 -3 -8 -11 -16 0
-75 -4 -5 -12 -13 0
-75 -4 -7 -12 -15 0
-75 -5 -7 -13 -15 0
-75 -5 -8 -13 -16 0
-75 -6 -7 -14 -15 0
-75 -6 -8 -14 -16 0
-75 -1 -2 -17 -18 0
-75 -1 -3 -17 -19 0
-75 -1 -4 -17 -20 0
-75 -1 -6 -17 -22 0
-75 -1 -7 -17 -23 0
-75 -2 -3 -18 -19 0
-75 -2 -4 -18 -20 0
-75 -2 -5 -18 -21 0
-75 -2 -8 -18 -24 0
-75 -3 -6 -19 -22 0
-75 -3 -8 -19 -24 0
-75 -4 -5 -20 -21 0
-75 -4 -7 -20 -23 0
-75 -5 -7 -21 -23 0
-75 -5 -8 -21 -24 0
-75 -6 -7 -22 -23 0
-75 -6 -8 -22 -24 0
-75 -9 -10 -41 -42 0
-75 -9 -11 -41 -43 0
-75 -9 -12 -41 -44 0
-75 -9 -14 -41 -46 0
-75 -9 -15 -41 -47 0
-75 -10 -11 -42 -43 0
-75 -10 -12 -42 -44 0
-75 -10 -13 -42 -45 0
-75 -10 -16 -42 -48 0
-75 -11 -14 -43 -46 0
-75 -11 -16 -43 -48 0
-75 -12 -13 -44 -45 0
-75 -12 -15 -44 -47 0
-75 -13 -15 -45 -47 0
-75 -13 -16 -45 -48 0
-75 -14 -15 -46 -47 0
-75 -14 -16 -46 -48 0
-75 -17 -18 -49 -50 0
-75 -17 -19 -49 -51 0
-75 -17 -20 -49 -52 0
-75 -17 -22 -49 -54 0
-75 -17 -23 -49 -55 0
-75 -18 -19 -50 -51 0
-75 -18 -20 -50 -52 0
-75 -18 -21 -50 -53 0
-75 -18 -24 -50 -56 0
-75 -19 -22 -51 -54 0
-75 -19 -24 -51 -56 0
-75 -20 -21 -52 -53 0
-75 -20 -23 -52 -55 0
-75 -21 -23 -53 -55 0
-75 -21 -24 -53 -56 0
-75 -22 -23 -54 -55 0
-75 -22 -24 -54 -56 0
-75 -25 -26 -33 -34 0
-75 -25 -27 -33 -35 0
-75 -25 -28 -33 -36 0
-75 -25 -30 -33 -38 0
-75 -25 -31 -33 -39 0
-75 -26 -27 -34 -35 0
-75 -26 -28 -34 -36 0
-75 -26 -29 -34 -37 0
-75 -26 -32 -34 -40 0
-75 -27 -30 -35 -38 0
-75 -27 -32 -35 -40 0
-75 -28 -29 -36 -37 0
-75 -28 -31 -36 -39 0
-75 -29 -31 -37 -39 0
-75 -29 -32 -37 -40 0
-75 -30 -31 -38 -39 0
-75 -30 -32 -38 -40 0
-75 -25 -26 -41 -42 0
-75 -25 -27 -41 -43 0
-75 -25 -28 -41 -44 0
-75 -25 -30 -41 -46 0
-75 -25 -31 -41 -47 0
-75 -26 -27 -42 -43 0
-75 -26 -28 -42 -44 0
-75 -26 -29 -42 -45 0
-75 -26 -32 -42 -48 0
-75 -27 -30 -43 -46 0
-75 -27 -32 -43 -48 0
-75 -28 -29 -44 -45 0
-75 -28 -31 -44 -47 0
-75 -29 -31 -45 -47 0
-75 -29 -32 -45 -48 0
-75 -30 -31 -46 -47 0
-75 -30 -32 -46 -48 0
-75 -33 -34 -49 -50 0
-75 -33 -35 -49 -51 0
-75 -33 -36 -49 -52 0
-75 -33 -38 -49 -54 0
-75 -33 -39 -49 -55 0
-75 -34 -35 -50 -51 0
-75 -34 -36 -50 -52 0
-75 -34 -37 -50 -53 0
-75 -34 -40 -50 -56 0
-75 -35 -38 -51 -54 0
-75 -35 -40 -51 -56 0
-75 -36 -37 -52 -53 0
-75 -36 -39 -52 -55 0
-75 -37 -39 -53 -55 0
-75 -37 -40 -53 -56 0
-75 -38 -39 -54 -55 0
-75 -38 -40 -54 -56 0
-75 1 25 49 0
-75 2 26 50 0
-75 3 27 51 0
-75 4 28 52 0
-75 5 29 53 0
-75 6 30 54 0
-75 7 31 55 0
-75 8 32 56 0
-75 1 33 41 0
-75 2 34 42 0
-75 3 35 43 0
-75 4 36 44 0
-75 5 37 45 0
-75 6 38 46 0
-75 7 39 47 0
-75 8 40 48 0
-75 1 41 49 0
-75 2 42 50 0
-75 3 43 51 0
-75 4 44 52 0
-75 5 45 53 0
-75 6 46 54 0
-75 7 47 55 0
-75 8 48 56 0
-75 9 17 25 0
-75 10 18 26 0
-75 11 19 27 0
-75 12 20 28 0
-75 13 21 29 0
-75 14 22 30 0
-75 15 23 31 0
-75 16 24 32 0
-75 9 17 33 0
-75 10 18 34 0
-75 11 19 35 0
-75 12 20 36 0
-75 13 21 37 0
-75 14 22 38 0
-75 15 23 39 0
-75 16 24 40 0
-75 9 25 49 0
-75 10 26 50 0
-75 11 27 51 0
-75 12 28 52 0
-75 13 29 53 0
-75 14 30 54 0
-75 15 31 55 0
-75 16 32 56 0
-75 17 33 41 0
-75 18 34 42 0
-75 19 35 43 0
-75 20 36 44 0
-75 21 37 45 0
-75 22 38 46 0
-75 23 39 47 0
-75 24 40 48 0
-75 1 5 25 29 0
-75 1 8 25 32 0
-75 2 6 26 30 0
-75 2 7 26 31 0
-75 3 4 27 28 0
-75 3 5 27 29 0
-75 3 7 27 31 0
-75 4 6 28 30 0
-75 4 8 28 32 0
-75 5 6 29 30 0
-75 7 8 31 32 0
-75 1 5 33 37 0
-75 1 8 33 40 0
-75 2 6 34 38 0
-75 2 7 34 39 0
-75 3 4 35 36 0
-75 3 5 35 37 0
-75 3 7 35 39 0
-75 4 6 36 38 0
-75 4 8 36 40 0
-75 5 6 37 38 0
-75 7 8 39 40 0
-75 1 5 41 45 0
-75 1 8 41 48 0
-75 2 6 42 46 0
-75 2 7 42 47 0
-75 3 4 43 44 0
-75 3 5 43 45 0
-75 3 7 43 47 0
-75 4 6 44 46 0
-75 4 8 44 48 0
-75 5 6 45 46 0
-75 7 8 47 48 0
-75 1 5 49 53 0
-75 1 8 49 56 0
-75 2 6 50 54 0
-75 2 7 50 55 0
-75 3 4 51 52 0
-75 3 5 51 53 0
-75 3 7 51 55 0
-75 4 6 52 54 0
-75 4 8 52 56 0
-75 5 6 53 54 0
-75 7 8 55 56 0
-75 9 13 17 21 0
-75 9 16 17 24 0
-75 10 14 18 22 0
-75 10 15 18 23 0
-75 11 12 19 20 0
-75 11 13 19 21 0
-75 11 15 19 23 0
-75 12 14 20 22 0
-75 12 16 20 24 0
-75 13 14 21 22 0
-75 15 16 23 24 0
-75 9 13 25 29 0
-75 9 16 25 32 0
-75 10 14 26 30 0
-75 10 15 26 31 0
-75 11 12 27 28 0
-75 11 13 27 29 0
-75 11 15 27 31 0
-75 12 14 28 30 0
-75 12 16 28 32 0
-75 13 14 29 30 0
-75 15 16 31 32 0
-75 9 13 33 37 0
-75 9 16 33 40 0
-75 10 14 34 38 0
-75 10 15 34 39 0
-75 11 12 35 36 0
-75 11 13 35 37 0
-75 11 15 35 39 0
-75 12 14 36 38 0
-75 12 16 36 40 0
-75 13 14 37 38 0
-75 15 16 39 40 0
-75 9 13 49 53 0
-75 9 16 49 56 0
-75 10 14 50 54 0
-75 10 15 50 55 0
-75 11 12 51 52 0
-75 11 13 51 53 0
-75 11 15 51 55 0
-75 12 14 52 54 0
-75 12 16 52 56 0
-75 13 14 53 54 0
-75 15 16 55 56 0
-75 17 21 25 29 0
-75 17 24 25 32 0
-75 18 22 26 30 0
-75 18 23 26 31 0
-75 19 20 27 28 0
-75 19 21 27 29 0
-75 19 23 27 31 0
-75 20 22 28 30 0
-75 20 24 28 32 0
-75 21 22 29 30 0
-75 23 24 31 32 0
-75 17 21 33 37 0
-75 17 24 33 40 0
-75 18 22 34 38 0
-75 18 23 34 39 0
-75 19 20 35 36 0
-75 19 21 35 37 0
-75 19 23 35 39 0
-75 20 22 36 38 0
-75 20 24 36 40 0
-75 21 22 37 38 0
-75 23 24 39 40 0
-75 17 21 41 45 0
-75 17 24 41 48 0
-75 18 22 42 46 0
-75 18 23 42 47 0
-75 19 20 43 44 0
-75 19 21 43 45 0
-75 19 23 43 47 0
-75 20 22 44 46 0
-75 20 24 44 48 0
-75 21 22 45 46 0
-75 23 24 47 48 0
-75 25 29 49 53 0
-75 25 32 49 56 0
-75 26 30 50 54 0
-75 26 31 50 55 0
-75 27 28 51 52 0
-75 27 29 51 53 0
-75 27 31 51 55 0
-75 28 30 52 54 0
-75 28 32 52 56 0
-75 29 30 53 54 0
-75 31 32 55 56 0
-75 33 37 41 45 0
-75 33 40 41 48 0
-75 34 38 42 46 0
-75 34 39 42 47 0
-75 35 36 43 44 0
-75 35 37 43 45 0
-75 35 39 43 47 0
-75 36 38 44 46 0
-75 36 40 44 48 0
-75 37 38 45 46 0
-75 39 40 47 48 0
-75 41 45 49 53 0
-75 41 48 49 56 0
-75 42 46 50 54 0
-75 42 47 50 55 0
-75 43 44 51 52 0
-75 43 45 51 53 0
-75 43 47 51 55 0
-75 44 46 52 54 0
-75 44 48 52 56 0
-75 45 46 53 54 0
-75 47 48 55 56 0
-76 -1 -3 -7 0
-76 -9 -11 -15 0
-76 -17 -19 -23 0
-76 -25 -27 -31 0
-76 -33 -35 -39 0
-76 -41 -43 -47 0
-76 -49 -51 -55 0
-76 -1 -3 -8 0
-76 -9 -11 -16 0
-76 -17 -19 -24 0
-76 -25 -27 -32 0
-76 -33 -35 -40 0
-76 -41 -43 -48 0
-76 -49 -51 -56 0
-76 -1 -4 -6 0
-76 -9 -12 -14 0
-76 -17 -20 -22 0
-76 -25 -28 -30 0
-76 -33 -36 -38 0
-76 -41 -44 -46 0
-76 -49 -52 -54 0
-76 -1 -4 -8 0
-76 -9 -12 -16 0
-76 -17 -20 -24 0
-76 -25 -28 -32 0
-76 -33 -36 -40 0
-76 -41 -44 -48 0
-76 -49 -52 -56 0
-76 -1 -6 -7 0
-76 -9 -14 -15 0
-76 -17 -22 -23 0
-76 -25 -30 -31 0
-76 -33 -38 -39 0
-76 -41 -46 -47 0
-76 -49 -54 -55 0
-76 -2 -3 -5 0
-76 -10 -11 -13 0
-76 -18 -19 -21 0
-76 -26 -27 -29 0
-76 -34 -35 -37 0
-76 -42 -43 -45 0
-76 -50 -51 -53 0
-76 -2 -3 -7 0
-76 -10 -11 -15 0
-76 -18 -19 -23 0
-76 -26 -27 -31 0
-76 -34 -35 -39 0
-76 -42 -43 -47 0
-76 -50 -51 -55 0
-76 -2 -4 -5 0
-76 -10 -12 -13 0
-76 -18 -20 -21 0
-76 -26 -28 -29 0
-76 -34 -36 -37 0
-76 -42 -44 -45 0
-76 -50 -52 -53 0
-76 -2 -4 -6 0
-76 -10 -12 -14 0
-76 -18 -20 -22 0
-76 -26 -28 -30 0
-76 -34 -36 -38 0
-76 -42 -44 -46 0
-76 -50 -52 -54 0
-76 -2 -6 -7 0
-76 -10 -14 -15 0
-76 -18 -22 -23 0
-76 -26 -30 -31 0
-76 -34 -38 -39 0
-76 -42 -46 -47 0
-76 -50 -54 -55 0
-76 -3 -5 -8 0
-76 -11 -13 -16 0
-76 -19 -21 -24 0
-76 -27 -29 -32 0
-76 -35 -37 -40 0
-76 -43 -45 -48 0
-76 -51 -53 -56 0
-76 -4 -5 -8 0
-76 -12 -13 -16 0
-76 -20 -21 -24 0
-76 -28 -29 -32 0
-76 -36 -37 -40 0
-76 -44 -45 -48 0
-76 -52 -53 -56 0
-76 -1 -3 -9 -11 0
-76 -1 -4 -9 -12 0
-76 -1 -6 -9 -14 0
-76 -1 -7 -9 -15 0
-76 -1 -8 -9 -16 0
-76 -2 -3 -10 -11 0
-76 -2 -4 -10 -12 0
-76 -2 -5 -10 -13 0
-76 -2 -6 -10 -14 0
-76 -2 -7 -10 -15 0
-76 -3 -5 -11 -13 0
-76 -3 -7 -11 -15 0
-76 -3 -8 -11 -16 0
-76 -4 -5 -12 -13 0
-76 -4 -6 -12 -14 0
-76 -4 -8 -12 -16 0
-76 -5 -8 -13 -16 0
-76 -6 -7 -14 -15 0
-76 -1 -3 -17 -19 0
-76 -1 -4 -17 -20 0
-76 -1 -6 -17 -22 0
-76 -1 -7 -17 -23 0
-76 -1 -8 -17 -24 0
-76 -2 -3 -18 -19 0
-76 -2 -4 -18 -20 0
-76 -2 -5 -18 -21 0
-76 -2 -6 -18 -22 0
-76 -2 -7 -18 -23 0
-76 -3 -5 -19 -21 0
-76 -3 -7 -19 -23 0
-76 -3 -8 -19 -24 0
-76 -4 -5 -20 -21 0
-76 -4 -6 -20 -22 0
-76 -4 -8 -20 -24 0
-76 -5 -8 -21 -24 0
-76 -6 -7 -22 -23 0
-76 -9 -11 -41 -43 0
-76 -9 -12 -41 -44 0
-76 -9 -14 -41 -46 0
-76 -9 -15 -41 -47 0
-76 -9 -16 -41 -48 0
-76 -10 -11 -42 -43 0
-76 -10 -12 -42 -44 0
-76 -10 -13 -42 -45 0
-76 -10 -14 -42 -46 0
-76 -10 -15 -42 -47 0
-76 -11 -13 -43 -45 0
-76 -11 -15 -43 -47 0
-76 -11 -16 -43 -48 0
-76 -12 -13 -44 -45 0
-76 -12 -14 -44 -46 0
-76 -12 -16 -44 -48 0
-76 -13 -16 -45 -48 0
-76 -14 -15 -46 -47 0
-76 -17 -19 -49 -51 0
-76 -17 -20 -49 -52 0
-76 -17 -22 -49 -54 0
-76 -17 -23 -49 -55 0
-76 -17 -24 -49 -56 0
-76 -18 -19 -50 -51 0
-76 -18 -20 -50 -52 0
-76 -18 -21 -50 -53 0
-76 -18 -22 -50 -54 0
-76 -18 -23 -50 -55 0
-76 -19 -21 -51 -53 0
-76 -19 -23 -51 -55 0
-76 -19 -24 -51 -56 0
-76 -20 -21 -52 -53 0
-76 -20 -22 -52 -54 0
-76 -20 -24 -52 -56 0
-76 -21 -24 -53 -56 0
-76 -22 -23 -54 -55 0
-76 -25 -27 -33 -35 0
-76 -25 -28 -33 -36 0
-76 -25 -30 -33 -38 0
-76 -25 -31 -33 -39 0
-76 -25 -32 -33 -40 0
-76 -26 -27 -34 -35 0
-76 -26 -28 -34 -36 0
-76 -26 -29 -34 -37 0
-76 -26 -30 -34 -38 0
-76 -26 -31 -34 -39 0
-76 -27 -29 -35 -37 0
-76 -27 -31 -35 -39 0
-76 -27 -32 -35 -40 0
-76 -28 -29 -36 -37 0
-76 -28 -30 -36 -38 0
-76 -28 -32 -36 -40 0
-76 -29 -32 -37 -40 0
-76 -30 -31 -38 -39 0
-76 -25 -27 -41 -43 0
-76 -25 -28 -41 -44 0
-76 -25 -30 -41 -46 0
-76 -25 -31 -41 -47 0
-76 -25 -32 -41 -48 0
-76 -26 -27 -42 -43 0
-76 -26 -28 -42 -44 0
-76 -26 -29 -42 -45 0
-76 -26 -30 -42 -46 0
-76 -26 -31 -42 -47 0
-76 -27 -29 -43 -45 0
-76 -27 -31 -43 -47 0
-76 -27 -32 -43 -48 0
-76 -28 -29 -44 -45 0
-76 -28 -30 -44 -46 0
-76 -28 -32 -44 -48 0
-76 -29 -32 -45 -48 0
-76 -30 -31 -46 -47 0
-76 -33 -35 -49 -51 0
-76 -33 -36 -49 -52 0
-76 -33 -38 -49 -54 0
-76 -33 -39 -49 -55 0
-76 -33 -40 -49 -56 0
-76 -34 -35 -50 -51 0
-76 -34 -36 -50 -52 0
-76 -34 -37 -50 -53 0
-76 -34 -38 -50 -54 0
-76 -34 -39 -50 -55 0
-76 -35 -37 -51 -53 0
-76 -35 -39 -51 -55 0
-76 -35 -40 -51 -56 0
-76 -36 -37 -52 -53 0
-76 -36 -38 -52 -54 0
-76 -36 -40 -52 -56 0
-76 -37 -40 -53 -56 0
-76 -38 -39 -54 -55 0
-76 1 25 49 0
-76 2 26 50 0
-76 3 27 51 0
-76 4 28 52 0
-76 5 29 53 0
-76 6 30 54 0
-76 7 31 55 0
-76 8 32 56 0
-76 1 33 41 0
-76 2 34 42 0
-76 3 35 43 0
-76 4 36 44 0
-76 5 37 45 0
-76 6 38 46 0
-76 7 39 47 0
-76 8 40 48 0
-76 1 41 49 0
-76 2 42 50 0
-76 3 43 51 0
-76 4 44 52 0
-76 5 45 53 0
-76 6 46 54 0
-76 7 47 55 0
-76 8 48 56 0
-76 9 17 25 0
-76 10 18 26 0
-76 11 19 27 0
-76 12 20 28 0
-76 13 21 29 0
-76 14 22 30 0
-76 15 23 31 0
-76 16 24 32 0
-76 9 17 33 0
-76 10 18 34 0
-76 11 19 35 0
-76 12 20 36 0
-76 13 21 37 0
-76 14 22 38 0
-76 15 23 39 0
-76 16 24 40 0
-76 9 25 49 0
-76 10 26 50 0
-76 11 27 51 0
-76 12 28 52 0
-76 13 29 53 0
-76 14 30 54 0
-76 15 31 55 0
-76 16 32 56 0
-76 17 33 41 0
-76 18 34 42 0
-76 19 35 43 0
-76 20 36 44 0
-76 21 37 45 0
-76 22 38 46 0
-76 23 39 47 0
-76 24 40 48 0
-76 1 2 25 26 0
-76 1 5 25 29 0
-76 2 8 26 32 0
-76 3 4 27 28 0
-76 3 6 27 30 0
-76 4 7 28 31 0
-76 5 6 29 30 0
-76 5 7 29 31 0
-76 6 8 30 32 0
-76 7 8 31 32 0
-76 1 2 33 34 0
-76 1 5 33 37 0
-76 2 8 34 40 0
-76 3 4 35 36 0
-76 3 6 35 38 0
-76 4 7 36 39 0
-76 5 6 37 38 0
-76 5 7 37 39 0
-76 6 8 38 40 0
-76 7 8 39 40 0
-76 1 2 41 42 0
-76 1 5 41 45 0
-76 2 8 42 48 0
-76 3 4 43 44 0
-76 3 6 43 46 0
-76 4 7 44 47 0
-76 5 6 45 46 0
-76 5 7 45 47 0
-76 6 8 46 48 0
-76 7 8 47 48 0
-76 1 2 49 50 0
-76 1 5 49 53 0
-76 2 8 50 56 0
-76 3 4 51 52 0
-76 3 6 51 54 0
-76 4 7 52 55 0
-76 5 6 53 54 0
-76 5 7 53 55 0
-76 6 8 54 56 0
-76 7 8 55 56 0
-76 9 10 17 18 0
-76 9 13 17 21 0
-76 10 16 18 24 0
-76 11 12 19 20 0
-76 11 14 19 22 0
-76 12 15 20 23 0
-76 13 14 21 22 0
-76 13 15 21 23 0
-76 14 16 22 24 0
-76 15 16 23 24 0
-76 9 10 25 26 0
-76 9 13 25 29 0
-76 10 16 26 32 0
-76 11 12 27 28 0
-76 11 14 27 30 0
-76 12 15 28 31 0
-76 13 14 29 30 0
-76 13 15 29 31 0
-76 14 16 30 32 0
-76 15 16 31 32 0
-76 9 10 33 34 0
-76 9 13 33 37 0
-76 10 16 34 40 0
-76 11 12 35 36 0
-76 11 14 35 38 0
-76 12 15 36 39 0
-76 13 14 37 38 0
-76 13 15 37 39 0
-76 14 16 38 40 0
-76 15 16 39 40 0
-76 9 10 49 50 0
-76 9 13 49 53 0
-76 10 16 50 56 0
-76 11 12 51 52 0
-76 11 14 51 54 0
-76 12 15 52 55 0
-76 13 14 53 54 0
-76 13 15 53 55 0
-76 14 16 54 56 0
-76 15 16 55 56 0
-76 17 18 25 26 0
-76 17 21 25 29 0
-76 18 24 26 32 0
-76 19 20 27 28 0
-76 19 22 27 30 0
-76 20 23 28 31 0
-76 21 22 29 30 0
-76 21 23 29 31 0
-76 22 24 30 32 0
-76 23 24 31 32 0
-76 17 18 33 34 0
-76 17 21 33 37 0
-76 18 24 34 40 0
-76 19 20 35 36 0
-76 19 22 35 38 0
-76 20 23 36 39 0
-76 21 22 37 38 0
-76 21 23 37 39 0
-76 22 24 38 40 0
-76 23 24 39 40 0
-76 17 18 41 42 0
-76 17 21 41 45 0
-76 18 24 42 48 0
-76 19 20 43 44 0
-76 19 22 43 46 0
-76 20 23 44 47 0
-76 21 22 45 46 0
-76 21 23 45 47 0
-76 22 24 46 48 0
-76 23 24 47 48 0
-76 25 26 49 50 0
-76 25 29 49 53 0
-76 26 32 50 56 0
-76 27 28 51 52 0
-76 27 30 51 54 0
-76 28 31 52 55 0
-76 29 30 53 54 0
-76 29 31 53 55 0
-76 30 32 54 56 0
-76 31 32 55 56 0
-76 33 34 41 42 0
-76 33 37 41 45 0
-76 34 40 42 48 0
-76 35 36 43 44 0
-76 35 38 43 46 0
-76 36 39 44 47 0
-76 37 38 45 46 0
-76 37 39 45 47 0
-76 38 40 46 48 0
-76 39 40 47 48 0
-76 41 42 49 50 0
-76 41 45 49 53 0
-76 42 48 50 56 0
-76 43 44 51 52 0
-76 43 46 51 54 0
-76 44 47 52 55 0
-76 45 46 53 54 0
-76 45 47 53 55 0
-76 46 48 54 56 0
-76 47 48 55 56 0
-77 -1 -5 -7 0
-77 -9 -13 -15 0
-77 -17 -21 -23 0
-77 -25 -29 -31 0
-77 -33 -37 -39 0
-77 -41 -45 -47 0
-77 -49 -53 -55 0
-77 -1 -6 -8 0
-77 -9 -14 -16 0
-77 -17 -22 -24 0
-77 -25 -30 -32 0
-77 -33 -38 -40 0
-77 -41 -46 -48 0
-77 -49 -54 -56 0
-77 -1 -7 -8 0
-77 -9 -15 -16 0
-77 -17 -23 -24 0
-77 -25 -31 -32 0
-77 -33 -39 -40 0
-77 -41 -47 -48 0
-77 -49 -55 -56 0
-77 -2 -3 -4 0
-77 -10 -11 -12 0
-77 -18 -19 -20 0
-77 -26 -27 -28 0
-77 -34 -35 -36 0
-77 -42 -43 -44 0
-77 -50 -51 -52 0
-77 -2 -4 -6 0
-77 -10 -12 -14 0
-77 -18 -20 -22 0
-77 -26 -28 -30 0
-77 -34 -36 -38 0
-77 -42 -44 -46 0
-77 -50 -52 -54 0
-77 -2 -6 -8 0
-77 -10 -14 -16 0
-77 -18 -22 -24 0
-77 -26 -30 -32 0
-77 -34 -38 -40 0
-77 -42 -46 -48 0
-77 -50 -54 -56 0
-77 -3 -4 -5 0
-77 -11 -12 -13 0
-77 -19 -20 -21 0
-77 -27 -28 -29 0
-77 -35 -36 -37 0
-77 -43 -44 -45 0
-77 -51 -52 -53 0
-77 -3 -5 -7 0
-77 -11 -13 -15 0
-77 -19 -21 -23 0
-77 -27 -29 -31 0
-77 -35 -37 -39 0
-77 -43 -45 -47 0
-77 -51 -53 -55 0
-77 -1 -5 -9 -13 0
-77 -1 -6 -9 -14 0
-77 -1 -7 -9 -15 0
-77 -1 -8 -9 -16 0
-77 -2 -3 -10 -11 0
-77 -2 -4 -10 -12 0
-77 -2 -6 -10 -14 0
-77 -2 -8 -10 -16 0
-77 -3 -4 -11 -12 0
-77 -3 -5 -11 -13 0
-77 -3 -7 -11 -15 0
-77 -4 -5 -12 -13 0
-77 -4 -6 -12 -14 0
-77 -5 -7 -13 -15 0
-77 -6 -8 -14 -16 0
-77 -7 -8 -15 -16 0
-77 -1 -5 -17 -21 0
-77 -1 -6 -17 -22 0
-77 -1 -7 -17 -23 0
-77 -1 -8 -17 -24 0
-77 -2 -3 -18 -19 0
-77 -2 -4 -18 -20 0
-77 -2 -6 -18 -22 0
-77 -2 -8 -18 -24 0
-77 -3 -4 -19 -20 0
-77 -3 -5 -19 -21 0
-77 -3 -7 -19 -23 0
-77 -4 -5 -20 -21 0
-77 -4 -6 -20 -22 0
-77 -5 -7 -21 -23 0
-77 -6 -8 -22 -24 0
-77 -7 -8 -23 -24 0
-77 -9 -13 -41 -45 0
-77 -9 -14 -41 -46 0
-77 -9 -15 -41 -47 0
-77 -9 -16 -41 -48 0
-77 -10 -11 -42 -43 0
-77 -10 -12 -42 -44 0
-77 -10 -14 -42 -46 0
-77 -10 -16 -42 -48 0
-77 -11 -12 -43 -44 0
-77 -11 -13 -43 -45 0
-77 -11 -15 -43 -47 0
-77 -12 -13 -44 -45 0
-77 -12 -14 -44 -46 0
-77 -13 -15 -45 -47 0
-77 -14 -16 -46 -48 0
-77 -15 -16 -47 -48 0
-77 -17 -21 -49 -53 0
-77 -17 -22 -49 -54 0
-77 -17 -23 -49 -55 0
-77 -17 -24 -49 -56 0
-77 -18 -19 -50 -51 0
-77 -18 -20 -50 -52 0
-77 -18 -22 -50 -54 0
-77 -18 -24 -50 -56 0
-77 -19 -20 -51 -52 0
-77 -19 -21 -51 -53 0
-77 -19 -23 -51 -55 0
-77 -20 -21 -52 -53 0
-77 -20 -22 -52 -54 0
-77 -21 -23 -53 -55 0
-77 -22 -24 -54 -56 0
-77 -23 -24 -55 -56 0
-77 -25 -29 -33 -37 0
-77 -25 -30 -33 -38 0
-77 -25 -31 -33 -39 0
-77 -25 -32 -33 -40 0
-77 -26 -27 -34 -35 0
-77 -26 -28 -34 -36 0
-77 -26 -30 -34 -38 0
-77 -26 -32 -34 -40 0
-77 -27 -28 -35 -36 0
-77 -27 -29 -35 -37 0
-77 -27 -31 -35 -39 0
-77 -28 -29 -36 -37 0
-77 -28 -30 -36 -38 0
-77 -29 -31 -37 -39 0
-77 -30 -32 -38 -40 0
-77 -31 -32 -39 -40 0
-77 -25 -29 -41 -45 0
-77 -25 -30 -41 -46 0
-77 -25 -31 -41 -47 0
-77 -25 -32 -41 -48 0
-77 -26 -27 -42 -43 0
-77 -26 -28 -42 -44 0
-77 -26 -30 -42 -46 0
-77 -26 -32 -42 -48 0
-77 -27 -28 -43 -44 0
-77 -27 -29 -43 -45 0
-77 -27 -31 -43 -47 0
-77 -28 -29 -44 -45 0
-77 -28 -30 -44 -46 0
-77 -29 -31 -45 -47 0
-77 -30 -32 -46 -48 0
-77 -31 -32 -47 -48 0
-77 -33 -37 -49 -53 0
-77 -33 -38 -49 -54 0
-77 -33 -39 -49 -55 0
-77 -33 -40 -49 -56 0
-77 -34 -35 -50 -51 0
-77 -34 -36 -50 -52 0
-77 -34 -38 -50 -54 0
-77 -34 -40 -50 -56 0
-77 -35 -36 -51 -52 0
-77 -35 -37 -51 -53 0
-77 -35 -39 -51 -55 0
-77 -36 -37 -52 -53 0
-77 -36 -38 -52 -54 0
-77 -37 -39 -53 -55 0
-77 -38 -40 -54 -56 0
-77 -39 -40 -55 -56 0
-77 1 25 49 0
-77 2 26 50 0
-77 3 27 51 0
-77 4 28 52 0
-77 5 29 53 0
-77 6 30 54 0
-77 7 31 55 0
-77 8 32 56 0
-77 1 33 41 0
-77 2 34 42 0
-77 3 35 43 0
-77 4 36 44 0
-77 5 37 45 0
-77 6 38 46 0
-77 7 39 47 0
-77 8 40 48 0
-77 1 41 49 0
-77 2 42 50 0
-77 3 43 51 0
-77 4 44 52 0
-77 5 45 53 0
-77 6 46 54 0
-77 7 47 55 0
-77 8 48 56 0
-77 9 17 25 0
-77 10 18 26 0
-77 11 19 27 0
-77 12 20 28 0
-77 13 21 29 0
-77 14 22 30 0
-77 15 23 31 0
-77 16 24 32 0
-77 9 17 33 0
-77 10 18 34 0
-77 11 19 35 0
-77 12 20 36 0
-77 13 21 37 0
-77 14 22 38 0
-77 15 23 39 0
-77 16 24 40 0
-77 9 25 49 0
-77 10 26 50 0
-77 11 27 51 0
-77 12 28 52 0
-77 13 29 53 0
-77 14 30 54 0
-77 15 31 55 0
-77 16 32 56 0
-77 17 33 41 0
-77 18 34 42 0
-77 19 35 43 0
-77 20 36 44 0
-77 21 37 45 0
-77 22 38 46 0
-77 23 39 47 0
-77 24 40 48 0
-77 1 2 25 26 0
-77 1 3 25 27 0
-77 1 4 25 28 0
-77 2 5 26 29 0
-77 2 7 26 31 0
-77 3 6 27 30 0
-77 3 8 27 32 0
-77 4 7 28 31 0
-77 4 8 28 32 0
-77 5 6 29 30 0
-77 5 8 29 32 0
-77 6 7 30 31 0
-77 1 2 33 34 0
-77 1 3 33 35 0
-77 1 4 33 36 0
-77 2 5 34 37 0
-77 2 7 34 39 0
-77 3 6 35 38 0
-77 3 8 35 40 0
-77 4 7 36 39 0
-77 4 8 36 40 0
-77 5 6 37 38 0
-77 5 8 37 40 0
-77 6 7 38 39 0
-77 1 2 41 42 0
-77 1 3 41 43 0
-77 1 4 41 44 0
-77 2 5 42 45 0
-77 2 7 42 47 0
-77 3 6 43 46 0
-77 3 8 43 48 0
-77 4 7 44 47 0
-77 4 8 44 48 0
-77 5 6 45 46 0
-77 5 8 45 48 0
-77 6 7 46 47 0
-77 1 2 49 50 0
-77 1 3 49 51 0
-77 1 4 49 52 0
-77 2 5 50 53 0
-77 2 7 50 55 0
-77 3 6 51 54 0
-77 3 8 51 56 0
-77 4 7 52 55 0
-77 4 8 52 56 0
-77 5 6 53 54 0
-77 5 8 53 56 0
-77 6 7 54 55 0
-77 9 10 17 18 0
-77 9 11 17 19 0
-77 9 12 17 20 0
-77 10 13 18 21 0
-77 10 15 18 23 0
-77 11 14 19 22 0
-77 11 16 19 24 0
-77 12 15 20 23 0
-77 12 16 20 24 0
-77 13 14 21 22 0
-77 13 16 21 24 0
-77 14 15 22 23 0
-77 9 10 25 26 0
-77 9 11 25 27 0
-77 9 12 25 28 0
-77 10 13 26 29 0
-77 10 15 26 31 0
-77 11 14 27 30 0
-77 11 16 27 32 0
-77 12 15 28 31 0
-77 12 16 28 32 0
-77 13 14 29 30 0
-77 13 16 29 32 0
-77 14 15 30 31 0
-77 9 10 33 34 0
-77 9 11 33 35 0
-77 9 12 33 36 0
-77 10 13 34 37 0
-77 10 15 34 39 0
-77 11 14 35 38 0
-77 11 16 35 40 0
-77 12 15 36 39 0
-77 12 16 36 40 0
-77 13 14 37 38 0
-77 13 16 37 40 0
-77 14 15 38 39 0
-77 9 10 49 50 0
-77 9 11 49 51 0
-77 9 12 49 52 0
-77 10 13 50 53 0
-77 10 15 50 55 0
-77 11 14 51 54 0
-77 11 16 51 56 0
-77 12 15 52 55 0
-77 12 16 52 56 0
-77 13 14 53 54 0
-77 13 16 53 56 0
-77 14 15 54 55 0
-77 17 18 25 26 0
-77 17 19 25 27 0
-77 17 20 25 28 0
-77 18 21 26 29 0
-77 18 23 26 31 0
-77 19 22 27 30 0
-77 19 24 27 32 0
-77 20 23 28 31 0
-77 20 24 28 32 0
-77 21 22 29 30 0
-77 21 24 29 32 0
-77 22 23 30 31 0
-77 17 18 33 34 0
-77 17 19 33 35 0
-77 17 20 33 36 0
-77 18 21 34 37 0
-77 18 23 34 39 0
-77 19 22 35 38 0
-77 19 24 35 40 0
-77 20 23 36 39 0
-77 20 24 36 40 0
-77 21 22 37 38 0
-77 21 24 37 40 0
-77 22 23 38 39 0
-77 17 18 41 42 0
-77 17 19 41 43 0
-77 17 20 41 44 0
-77 18 21 42 45 0
-77 18 23 42 47 0
-77 19 22 43 46 0
-77 19 24 43 48 0
-77 20 23 44 47 0
-77 20 24 44 48 0
-77 21 22 45 46 0
-77 21 24 45 48 0
-77 22 23 46 47 0
-77 25 26 49 50 0
-77 25 27 49 51 0
-77 25 28 49 52 0
-77 26 29 50 53 0
-77 26 31 50 55 0
-77 27 30 51 54 0
-77 27 32 51 56 0
-77 28 31 52 55 0
-77 28 32 52 56 0
-77 29 30 53 54 0
-77 29 32 53 56 0
-77 30 31 54 55 0
-77 33 34 41 42 0
-77 33 35 41 43 0
-77 33 36 41 44 0
-77 34 37 42 45 0
-77 34 39 42 47 0
-77 35 38 43 46 0
-77 35 40 43 48 0
-77 36 39 44 47 0
-77 36 40 44 48 0
-77 37 38 45 46 0
-77 37 40 45 48 0
-77 38 39 46 47 0
-77 41 42 49 50 0
-77 41 43 49 51 0
-77 41 44 49 52 0
-77 42 45 50 53 0
-77 42 47 50 55 0
-77 43 46 51 54 0
-77 43 48 51 56 0
-77 44 47 52 55 0
-77 44 48 52 56 0
-77 45 46 53 54 0
-77 45 48 53 56 0
-77 46 47 54 55 0
-78 -1 -2 -3 0
-78 -9 -10 -11 0
-78 -17 -18 -19 0
-78 -25 -26 -27 0
-78 -33 -34 -35 0
-78 -41 -42 -43 0
-78 -49 -50 -51 0
-78 -1 -2 -4 0
-78 -9 -10 -12 0
-78 -17 -18 -20 0
-78 -25 -26 -28 0
-78 -33 -34 -36 0
-78 -41 -42 -44 0
-78 -49 -50 -52 0
-78 -1 -3 -6 0
-78 -9 -11 -14 0
-78 -17 -19 -22 0
-78 -25 -27 -30 0
-78 -33 -35 -38 0
-78 -41 -43 -46 0
-78 -49 -51 -54 0
-78 -1 -4 -7 0
-78 -9 -12 -15 0
-78 -17 -20 -23 0
-78 -25 -28 -31 0
-78 -33 -36 -39 0
-78 -41 -44 -47 0
-78 -49 -52 -55 0
-78 -1 -6 -7 0
-78 -9 -14 -15 0
-78 -17 -22 -23 0
-78 -25 -30 -31 0
-78 -33 -38 -39 0
-78 -41 -46 -47 0
-78 -49 -54 -55 0
-78 -2 -3 -8 0
-78 -10 -11 -16 0
-78 -18 -19 -24 0
-78 -26 -27 -32 0
-78 -34 -35 -40 0
-78 -42 -43 -48 0
-78 -50 -51 -56 0
-78 -2 -4 -5 0
-78 -10 -12 -13 0
-78 -18 -20 -21 0
-78 -26 -28 -29 0
-78 -34 -36 -37 0
-78 -42 -44 -45 0
-78 -50 -52 -53 0
-78 -2 -5 -8 0
-78 -10 -13 -16 0
-78 -18 -21 -24 0
-78 -26 -29 -32 0
-78 -34 -37 -40 0
-78 -42 -45 -48 0
-78 -50 -53 -56 0
-78 -3 -6 -8 0
-78 -11 -14 -16 0
-78 -19 -22 -24 0
-78 -27 -30 -32 0
-78 -35 -38 -40 0
-78 -43 -46 -48 0
-78 -51 -54 -56 0
-78 -4 -5 -7 0
-78 -12 -13 -15 0
-78 -20 -21 -23 0
-78 -28 -29 -31 0
-78 -36 -37 -39 0
-78 -44 -45 -47 0
-78 -52 -53 -55 0
-78 -1 -2 -9 -10 0
-78 -1 -3 -9 -11 0
-78 -1 -4 -9 -12 0
-78 -1 -6 -9 -14 0
-78 -1 -7 -9 -15 0
-78 -2 -3 -10 -11 0
-78 -2 -4 -10 -12 0
-78 -2 -5 -10 -13 0
-78 -2 -8 -10 -16 0
-78 -3 -6 -11 -14 0
-78 -3 -8 -11 -16 0
-78 -4 -5 -12 -13 0
-78 -4 -7 -12 -15 0
-78 -5 -7 -13 -15 0
-78 -5 -8 -13 -16 0
-78 -6 -7 -14 -15 0
-78 -6 -8 -14 -16 0
-78 -1 -2 -17 -18 0
-78 -1 -3 -17 -19 0
-78 -1 -4 -17 -20 0
-78 -1 -6 -17 -22 0
-78 -1 -7 -17 -23 0
-78 -2 -3 -18 -19 0
-78 -2 -4 -18 -20 0
-78 -2 -5 -18 -21 0
-78 -2 -8 -18 -24 0
-78 -3 -6 -19 -22 0
-78 -3 -8 -19 -24 0
-78 -4 -5 -20 -21 0
-78 -4 -7 -20 -23 0
-78 -5 -7 -21 -23 0
-78 -5 -8 -21 -24 0
-78 -6 -7 -22 -23 0
-78 -6 -8 -22 -24 0
-78 -9 -10 -41 -42 0
-78 -9 -11 -41 -43 0
-78 -9 -12 -41 -44 0
-78 -9 -14 -41 -46 0
-78 -9 -15 -41 -47 0
-78 -10 -11 -42 -43 0
-78 -10 -12 -42 -44 0
-78 -10 -13 -42 -45 0
-78 -10 -16 -42 -48 0
-78 -11 -14 -43 -46 0
-78 -11 -16 -43 -48 0
-78 -12 -13 -44 -45 0
-78 -12 -15 -44 -47 0
-78 -13 -15 -45 -47 0
-78 -13 -16 -45 -48 0
-78 -14 -15 -46 -47 0
-78 -14 -16 -46 -48 0
-78 -17 -18 -49 -50 0
-78 -17 -19 -49 -51 0
-78 -17 -20 -49 -52 0
-78 -17 -22 -49 -54 0
-78 -17 -23 -49 -55 0
-78 -18 -19 -50 -51 0
-78 -18 -20 -50 -52 0
-78 -18 -21 -50 -53 0
-78 -18 -24 -50 -56 0
-78 -19 -22 -51 -54 0
-78 -19 -24 -51 -56 0
-78 -20 -21 -52 -53 0
-78 -20 -23 -52 -55 0
-78 -21 -23 -53 -55 0
-78 -21 -24 -53 -56 0
-78 -22 -23 -54 -55 0
-78 -22 -24 -54 -56 0
-78 -25 -26 -33 -34 0
-78 -25 -27 -33 -35 0
-78 -25 -28 -33 -36 0
-78 -25 -30 -33 -38 0
-78 -25 -31 -33 -39 0
-78 -26 -27 -34 -35 0
-78 -26 -28 -34 -36 0
-78 -26 -29 -34 -37 0
-78 -26 -32 -34 -40 0
-78 -27 -30 -35 -38 0
-78 -27 -32 -35 -40 0
-78 -28 -29 -36 -37 0
-78 -28 -31 -36 -39 0
-78 -29 -31 -37 -39 0
-78 -29 -32 -37 -40 0
-78 -30 -31 -38 -39 0
-78 -30 -32 -38 -40 0
-78 -25 -26 -41 -42 0
-78 -25 -27 -41 -43 0
-78 -25 -28 -41 -44 0
-78 -25 -30 -41 -46 0
-78 -25 -31 -41 -47 0
-78 -26 -27 -42 -43 0
-78 -26 -28 -42 -44 0
-78 -26 -29 -42 -45 0
-78 -26 -32 -42 -48 0
-78 -27 -30 -43 -46 0
-78 -27 -32 -43 -48 0
-78 -28 -29 -44 -45 0
-78 -28 -31 -44 -47 0
-78 -29 -31 -45 -47 0
-78 -29 -32 -45 -48 0
-78 -30 -31 -46 -47 0
-78 -30 -32 -46 -48 0
-78 -33 -34 -49 -50 0
-78 -33 -35 -49 -51 0
-78 -33 -36 -49 -52 0
-78 -33 -38 -49 -54 0
-78 -33 -39 -49 -55 0
-78 -34 -35 -50 -51 0
-78 -34 -36 -50 -52 0
-78 -34 -37 -50 -53 0
-78 -34 -40 -50 -56 0
-78 -35 -38 -51 -54 0
-78 -35 -40 -51 -56 0
-78 -36 -37 -52 -53 0
-78 -36 -39 -52 -55 0
-78 -37 -39 -53 -55 0
-78 -37 -40 -53 -56 0
-78 -38 -39 -54 -55 0
-78 -38 -40 -54 -56 0
-78 -41 -42 -49 -50 0
-78 -41 -43 -49 -51 0
-78 -41 -44 -49 -52 0
-78 -41 -46 -49 -54 0
-78 -41 -47 -49 -55 0
-78 -42 -43 -50 -51 0
-78 -42 -44 -50 -52 0
-78 -42 -45 -50 -53 0
-78 -42 -48 -50 -56 0
-78 -43 -46 -51 -54 0
-78 -43 -48 -51 -56 0
-78 -44 -45 -52 -53 0
-78 -44 -47 -52 -55 0
-78 -45 -47 -53 -55 0
-78 -45 -48 -53 -56 0
-78 -46 -47 -54 -55 0
-78 -46 -48 -54 -56 0
-78 1 25 49 0
-78 2 26 50 0
-78 3 27 51 0
-78 4 28 52 0
-78 5 29 53 0
-78 6 30 54 0
-78 7 31 55 0
-78 8 32 56 0
-78 1 33 41 0
-78 2 34 42 0
-78 3 35 43 0
-78 4 36 44 0
-78 5 37 45 0
-78 6 38 46 0
-78 7 39 47 0
-78 8 40 48 0
-78 9 17 25 0
-78 10 18 26 0
-78 11 19 27 0
-78 12 20 28 0
-78 13 21 29 0
-78 14 22 30 0
-78 15 23 31 0
-78 16 24 32 0
-78 9 17 33 0
-78 10 18 34 0
-78 11 19 35 0
-78 12 20 36 0
-78 13 21 37 0
-78 14 22 38 0
-78 15 23 39 0
-78 16 24 40 0
-78 9 25 49 0
-78 10 26 50 0
-78 11 27 51 0
-78 12 28 52 0
-78 13 29 53 0
-78 14 30 54 0
-78 15 31 55 0
-78 16 32 56 0
-78 17 33 41 0
-78 18 34 42 0
-78 19 35 43 0
-78 20 36 44 0
-78 21 37 45 0
-78 22 38 46 0
-78 23 39 47 0
-78 24 40 48 0
-78 1 5 25 29 0
-78 1 8 25 32 0
-78 2 6 26 30 0
-78 2 7 26 31 0
-78 3 4 27 28 0
-78 3 5 27 29 0
-78 3 7 27 31 0
-78 4 6 28 30 0
-78 4 8 28 32 0
-78 5 6 29 30 0
-78 7 8 31 32 0
-78 1 5 33 37 0
-78 1 8 33 40 0
-78 2 6 34 38 0
-78 2 7 34 39 0
-78 3 4 35 36 0
-78 3 5 35 37 0
-78 3 7 35 39 0
-78 4 6 36 38 0
-78 4 8 36 40 0
-78 5 6 37 38 0
-78 7 8 39 40 0
-78 1 5 41 45 0
-78 1 8 41 48 0
-78 2 6 42 46 0
-78 2 7 42 47 0
-78 3 4 43 44 0
-78 3 5 43 45 0
-78 3 7 43 47 0
-78 4 6 44 46 0
-78 4 8 44 48 0
-78 5 6 45 46 0
-78 7 8 47 48 0
-78 1 5 49 53 0
-78 1 8 49 56 0
-78 2 6 50 54 0
-78 2 7 50 55 0
-78 3 4 51 52 0
-78 3 5 51 53 0
-78 3 7 51 55 0
-78 4 6 52 54 0
-78 4 8 52 56 0
-78 5 6 53 54 0
-78 7 8 55 56 0
-78 9 13 17 21 0
-78 9 16 17 24 0
-78 10 14 18 22 0
-78 10 15 18 23 0
-78 11 12 19 20 0
-78 11 13 19 21 0
-78 11 15 19 23 0
-78 12 14 20 22 0
-78 12 16 20 24 0
-78 13 14 21 22 0
-78 15 16 23 24 0
-78 9 13 25 29 0
-78 9 16 25 32 0
-78 10 14 26 30 0
-78 10 15 26 31 0
-78 11 12 27 28 0
-78 11 13 27 29 0
-78 11 15 27 31 0
-78 12 14 28 30 0
-78 12 16 28 32 0
-78 13 14 29 30 0
-78 15 16 31 32 0
-78 9 13 33 37 0
-78 9 16 33 40 0
-78 10 14 34 38 0
-78 10 15 34 39 0
-78 11 12 35 36 0
-78 11 13 35 37 0
-78 11 15 35 39 0
-78 12 14 36 38 0
-78 12 16 36 40 0
-78 13 14 37 38 0
-78 15 16 39 40 0
-78 9 13 49 53 0
-78 9 16 49 56 0
-78 10 14 50 54 0
-78 10 15 50 55 0
-78 11 12 51 52 0
-78 11 13 51 53 0
-78 11 15 51 55 0
-78 12 14 52 54 0
-78 12 16 52 56 0
-78 13 14 53 54 0
-78 15 16 55 56 0
-78 17 21 25 29 0
-78 17 24 25 32 0
-78 18 22 26 30 0
-78 18 23 26 31 0
-78 19 20 27 28 0
-78 19 21 27 29 0
-78 19 23 27 31 0
-78 20 22 28 30 0
-78 20 24 28 32 0
-78 21 22 29 30 0
-78 23 24 31 32 0
-78 17 21 33 37 0
-78 17 24 33 40 0
-78 18 22 34 38 0
-78 18 23 34 39 0
-78 19 20 35 36 0
-78 19 21 35 37 0
-78 19 23 35 39 0
-78 20 22 36 38 0
-78 20 24 36 40 0
-78 21 22 37 38 0
-78 23 24 39 40 0
-78 17 21 41 45 0
-78 17 24 41 48 0
-78 18 22 42 46 0
-78 18 23 42 47 0
-78 19 20 43 44 0
-78 19 21 43 45 0
-78 19 23 43 47 0
-78 20 22 44 46 0
-78 20 24 44 48 0
-78 21 22 45 46 0
-78 23 24 47 48 0
-78 25 29 49 53 0
-78 25 32 49 56 0
-78 26 30 50 54 0
-78 26 31 50 55 0
-78 27 28 51 52 0
-78 27 29 51 53 0
-78 27 31 51 55 0
-78 28 30 52 54 0
-78 28 32 52 56 0
-78 29 30 53 54 0
-78 31 32 55 56 0
-78 33 37 41 45 0
-78 33 40 41 48 0
-78 34 38 42 46 0
-78 34 39 42 47 0
-78 35 36 43 44 0
-78 35 37 43 45 0
-78 35 39 43 47 0
-78 36 38 44 46 0
-78 36 40 44 48 0
-78 37 38 45 46 0
-78 39 40 47 48 0
-79 -1 -3 -7 0
-79 -9 -11 -15 0
-79 -17 -19 -23 0
-79 -25 -27 -31 0
-79 -33 -35 -39 0
-79 -41 -43 -47 0
-79 -49 -51 -55 0
-79 -1 -3 -8 0
-79 -9 -11 -16 0
-79 -17 -19 -24 0
-79 -25 -27 -32 0
-79 -33 -35 -40 0
-79 -41 -43 -48 0
-79 -49 -51 -56 0
-79 -1 -4 -6 0
-79 -9 -12 -14 0
-79 -17 -20 -22 0
-79 -25 -28 -30 0
-79 -33 -36 -38 0
-79 -41 -44 -46 0
-79 -49 -52 -54 0
-79 -1 -4 -8 0
-79 -9 -12 -16 0
-79 -17 -20 -24 0
-79 -25 -28 -32 0
-79 -33 -36 -40 0
-79 -41 -44 -48 0
-79 -49 -52 -56 0
-79 -1 -6 -7 0
-79 -9 -14 -15 0
-79 -17 -22 -23 0
-79 -25 -30 -31 0
-79 -33 -38 -39 0
-79 -41 -46 -47 0
-79 -49 -54 -55 0
-79 -2 -3 -5 0
-79 -10 -11 -13 0
-79 -18 -19 -21 0
-79 -26 -27 -29 0
-79 -34 -35 -37 0
-79 -42 -43 -45 0
-79 -50 -51 -53 0
-79 -2 -3 -7 0
-79 -10 -11 -15 0
-79 -18 -19 -23 0
-79 -26 -27 -31 0
-79 -34 -35 -39 0
-79 -42 -43 -47 0
-79 -50 -51 -55 0
-79 -2 -4 -5 0
-79 -10 -12 -13 0
-79 -18 -20 -21 0
-79 -26 -28 -29 0
-79 -34 -36 -37 0
-79 -42 -44 -45 0
-79 -50 -52 -53 0
-79 -2 -4 -6 0
-79 -10 -12 -14 0
-79 -18 -20 -22 0
-79 -26 -28 -30 0
-79 -34 -36 -38 0
-79 -42 -44 -46 0
-79 -50 -52 -54 0
-79 -2 -6 -7 0
-79 -10 -14 -15 0
-79 -18 -22 -23 0
-79 -26 -30 -31 0
-79 -34 -38 -39 0
-79 -42 -46 -47 0
-79 -50 -54 -55 0
-79 -3 -5 -8 0
-79 -11 -13 -16 0
-79 -19 -21 -24 0
-79 -27 -29 -32 0
-79 -35 -37 -40 0
-79 -43 -45 -48 0
-79 -51 -53 -56 0
-79 -4 -5 -8 0
-79 -12 -13 -16 0
-79 -20 -21 -24 0
-79 -28 -29 -32 0
-79 -36 -37 -40 0
-79 -44 -45 -48 0
-79 -52 -53 -56 0
-79 -1 -3 -9 -11 0
-79 -1 -4 -9 -12 0
-79 -1 -6 -9 -14 0
-79 -1 -7 -9 -15 0
-79 -1 -8 -9 -16 0
-79 -2 -3 -10 -11 0
-79 -2 -4 -10 -12 0
-79 -2 -5 -10 -13 0
-79 -2 -6 -10 -14 0
-79 -2 -7 -10 -15 0
-79 -3 -5 -11 -13 0
-79 -3 -7 -11 -15 0
-79 -3 -8 -11 -16 0
-79 -4 -5 -12 -13 0
-79 -4 -6 -12 -14 0
-79 -4 -8 -12 -16 0
-79 -5 -8 -13 -16 0
-79 -6 -7 -14 -15 0
-79 -1 -3 -17 -19 0
-79 -1 -4 -17 -20 0
-79 -1 -6 -17 -22 0
-79 -1 -7 -17 -23 0
-79 -1 -8 -17 -24 0
-79 -2 -3 -18 -19 0
-79 -2 -4 -18 -20 0
-79 -2 -5 -18 -21 0
-79 -2 -6 -18 -22 0
-79 -2 -7 -18 -23 0
-79 -3 -5 -19 -21 0
-79 -3 -7 -19 -23 0
-79 -3 -8 -19 -24 0
-79 -4 -5 -20 -21 0
-79 -4 -6 -20 -22 0
-79 -4 -8 -20 -24 0
-79 -5 -8 -21 -24 0
-79 -6 -7 -22 -23 0
-79 -9 -11 -41 -43 0
-79 -9 -12 -41 -44 0
-79 -9 -14 -41 -46 0
-79 -9 -15 -41 -47 0
-79 -9 -16 -41 -48 0
-79 -10 -11 -42 -43 0
-79 -10 -12 -42 -44 0
-79 -10 -13 -42 -45 0
-79 -10 -14 -42 -46 0
-79 -10 -15 -42 -47 0
-79 -11 -13 -43 -45 0
-79 -11 -15 -43 -47 0
-79 -11 -16 -43 -48 0
-79 -12 -13 -44 -45 0
-79 -12 -14 -44 -46 0
-79 -12 -16 -44 -48 0
-79 -13 -16 -45 -48 0
-79 -14 -15 -46 -47 0
-79 -17 -19 -49 -51 0
-79 -17 -20 -49 -52 0
-79 -17 -22 -49 -54 0
-79 -17 -23 -49 -55 0
-79 -17 -24 -49 -56 0
-79 -18 -19 -50 -51 0
-79 -18 -20 -50 -52 0
-79 -18 -21 -50 -53 0
-79 -18 -22 -50 -54 0
-79 -18 -23 -50 -55 0
-79 -19 -21 -51 -53 0
-79 -19 -23 -51 -55 0
-79 -19 -24 -51 -56 0
-79 -20 -21 -52 -53 0
-79 -20 -22 -52 -54 0
-79 -20 -24 -52 -56 0
-79 -21 -24 -53 -56 0
-79 -22 -23 -54 -55 0
-79 -25 -27 -33 -35 0
-79 -25 -28 -33 -36 0
-79 -25 -30 -33 -38 0
-79 -25 -31 -33 -39 0
-79 -25 -32 -33 -40 0
-79 -26 -27 -34 -35 0
-79 -26 -28 -34 -36 0
-79 -26 -29 -34 -37 0
-79 -26 -30 -34 -38 0
-79 -26 -31 -34 -39 0
-79 -27 -29 -35 -37 0
-79 -27 -31 -35 -39 0
-79 -27 -32 -35 -40 0
-79 -28 -29 -36 -37 0
-79 -28 -30 -36 -38 0
-79 -28 -32 -36 -40 0
-79 -29 -32 -37 -40 0
-79 -30 -31 -38 -39 0
-79 -25 -27 -41 -43 0
-79 -25 -28 -41 -44 0
-79 -25 -30 -41 -46 0
-79 -25 -31 -41 -47 0
-79 -25 -32 -41 -48 0
-79 -26 -27 -42 -43 0
-79 -26 -28 -42 -44 0
-79 -26 -29 -42 -45 0
-79 -26 -30 -42 -46 0
-79 -26 -31 -42 -47 0
-79 -27 -29 -43 -45 0
-79 -27 -31 -43 -47 0
-79 -27 -32 -43 -48 0
-79 -28 -29 -44 -45 0
-79 -28 -30 -44 -46 0
-79 -28 -32 -44 -48 0
-79 -29 -32 -45 -48 0
-79 -30 -31 -46 -47 0
-79 -33 -35 -49 -51 0
-79 -33 -36 -49 -52 0
-79 -33 -38 -49 -54 0
-79 -33 -39 -49 -55 0
-79 -33 -40 -49 -56 0
-79 -34 -35 -50 -51 0
-79 -34 -36 -50 -52 0
-79 -34 -37 -50 -53 0
-79 -34 -38 -50 -54 0
-79 -34 -39 -50 -55 0
-79 -35 -37 -51 -53 0
-79 -35 -39 -51 -55 0
-79 -35 -40 -51 -56 0
-79 -36 -37 -52 -53 0
-79 -36 -38 -52 -54 0
-79 -36 -40 -52 -56 0
-79 -37 -40 -53 -56 0
-79 -38 -39 -54 -55 0
-79 -41 -43 -49 -51 0
-79 -41 -44 -49 -52 0
-79 -41 -46 -49 -54 0
-79 -41 -47 -49 -55 0
-79 -41 -48 -49 -56 0
-79 -42 -43 -50 -51 0
-79 -42 -44 -50 -52 0
-79 -42 -45 -50 -53 0
-79 -42 -46 -50 -54 0
-79 -42 -47 -50 -55 0
-79 -43 -45 -51 -53 0
-79 -43 -47 -51 -55 0
-79 -43 -48 -51 -56 0
-79 -44 -45 -52 -53 0
-79 -44 -46 -52 -54 0
-79 -44 -48 -52 -56 0
-79 -45 -48 -53 -56 0
-79 -46 -47 -54 -55 0
-79 1 25 49 0
-79 2 26 50 0
-79 3 27 51 0
-79 4 28 52 0
-79 5 29 53 0
-79 6 30 54 0
-79 7 31 55 0
-79 8 32 56 0
-79 1 33 41 0
-79 2 34 42 0
-79 3 35 43 0
-79 4 36 44 0
-79 5 37 45 0
-79 6 38 46 0
-79 7 39 47 0
-79 8 40 48 0
-79 9 17 25 0
-79 10 18 26 0
-79 11 19 27 0
-79 12 20 28 0
-79 13 21 29 0
-79 14 22 30 0
-79 15 23 31 0
-79 16 24 32 0
-79 9 17 33 0
-79 10 18 34 0
-79 11 19 35 0
-79 12 20 36 0
-79 13 21 37 0
-79 14 22 38 0
-79 15 23 39 0
-79 16 24 40 0
-79 9 25 49 0
-79 10 26 50 0
-79 11 27 51 0
-79 12 28 52 0
-79 13 29 53 0
-79 14 30 54 0
-79 15 31 55 0
-79 16 32 56 0
-79 17 33 41 0
-79 18 34 42 0
-79 19 35 43 0
-79 20 36 44 0
-79 21 37 45 0
-79 22 38 46 0
-79 23 39 47 0
-79 24 40 48 0
-79 1 2 25 26 0
-79 1 5 25 29 0
-79 2 8 26 32 0
-79 3 4 27 28 0
-79 3 6 27 30 0
-79 4 7 28 31 0
-79 5 6 29 30 0
-79 5 7 29 31 0
-79 6 8 30 32 0
-79 7 8 31 32 0
-79 1 2 33 34 0
-79 1 5 33 37 0
-79 2 8 34 40 0
-79 3 4 35 36 0
-79 3 6 35 38 0
-79 4 7 36 39 0
-79 5 6 37 38 0
-79 5 7 37 39 0
-79 6 8 38 40 0
-79 7 8 39 40 0
-79 1 2 41 42 0
-79 1 5 41 45 0
-79 2 8 42 48 0
-79 3 4 43 44 0
-79 3 6 43 46 0
-79 4 7 44 47 0
-79 5 6 45 46 0
-79 5 7 45 47 0
-79 6 8 46 48 0
-79 7 8 47 48 0
-79 1 2 49 50 0
-79 1 5 49 53 0
-79 2 8 50 56 0
-79 3 4 51 52 0
-79 3 6 51 54 0
-79 4 7 52 55 0
-79 5 6 53 54 0
-79 5 7 53 55 0
-79 6 8 54 56 0
-79 7 8 55 56 0
-79 9 10 17 18 0
-79 9 13 17 21 0
-79 10 16 18 24 0
-79 11 12 19 20 0
-79 11 14 19 22 0
-79 12 15 20 23 0
-79 13 14 21 22 0
-79 13 15 21 23 0
-79 14 16 22 24 0
-79 15 16 23 24 0
-79 9 10 25 26 0
-79 9 13 25 29 0
-79 10 16 26 32 0
-79 11 12 27 28 0
-79 11 14 27 30 0
-79 12 15 28 31 0
-79 13 14 29 30 0
-79 13 15 29 31 0
-79 14 16 30 32 0
-79 15 16 31 32 0
-79 9 10 33 34 0
-79 9 13 33 37 0
-79 10 16 34 40 0
-79 11 12 35 36 0
-79 11 14 35 38 0
-79 12 15 36 39 0
-79 13 14 37 38 0
-79 13 15 37 39 0
-79 14 16 38 40 0
-79 15 16 39 40 0
-79 9 10 49 50 0
-79 9 13 49 53 0
-79 10 16 50 56 0
-79 11 12 51 52 0
-79 11 14 51 54 0
-79 12 15 52 55 0
-79 13 14 53 54 0
-79 13 15 53 55 0
-79 14 16 54 56 0
-79 15 16 55 56 0
-79 17 18 25 26 0
-79 17 21 25 29 0
-79 18 24 26 32 0
-79 19 20 27 28 0
-79 19 22 27 30 0
-79 20 23 28 31 0
-79 21 22 29 30 0
-79 21 23 29 31 0
-79 22 24 30 32 0
-79 23 24 31 32 0
-79 17 18 33 34 0
-79 17 21 33 37 0
-79 18 24 34 40 0
-79 19 20 35 36 0
-79 19 22 35 38 0
-79 20 23 36 39 0
-79 21 22 37 38 0
-79 21 23 37 39 0
-79 22 24 38 40 0
-79 23 24 39 40 0
-79 17 18 41 42 0
-79 17 21 41 45 0
-79 18 24 42 48 0
-79 19 20 43 44 0
-79 19 22 43 46 0
-79 20 23 44 47 0
-79 21 22 45 46 0
-79 21 23 45 47 0
-79 22 24 46 48 0
-79 23 24 47 48 0
-79 25 26 49 50 0
-79 25 29 49 53 0
-79 26 32 50 56 0
-79 27 28 51 52 0
-79 27 30 51 54 0
-79 28 31 52 55 0
-79 29 30 53 54 0
-79 29 31 53 55 0
-79 30 32 54 56 0
-79 31 32 55 56 0
-79 33 34 41 42 0
-79 33 37 41 45 0
-79 34 40 42 48 0
-79 35 36 43 44 0
-79 35 38 43 46 0
-79 36 39 44 47 0
-79 37 38 45 46 0
-79 37 39 45 47 0
-79 38 40 46 48 0
-79 39 40 47 48 0
-80 -1 -5 -7 0
-80 -9 -13 -15 0
-80 -17 -21 -23 0
-80 -25 -29 -31 0
-80 -33 -37 -39 0
-80 -41 -45 -47 0
-80 -49 -53 -55 0
-80 -1 -6 -8 0
-80 -9 -14 -16 0
-80 -17 -22 -24 0
-80 -25 -30 -32 0
-80 -33 -38 -40 0
-80 -41 -46 -48 0
-80 -49 -54 -56 0
-80 -1 -7 -8 0
-80 -9 -15 -16 0
-80 -17 -23 -24 0
-80 -25 -31 -32 0
-80 -33 -39 -40 0
-80 -41 -47 -48 0
-80 -49 -55 -56 0
-80 -2 -3 -4 0
-80 -10 -11 -12 0
-80 -18 -19 -20 0
-80 -26 -27 -28 0
-80 -34 -35 -36 0
-80 -42 -43 -44 0
-80 -50 -51 -52 0
-80 -2 -4 -6 0
-80 -10 -12 -14 0
-80 -18 -20 -22 0
-80 -26 -28 -30 0
-80 -34 -36 -38 0
-80 -42 -44 -46 0
-80 -50 -52 -54 0
-80 -2 -6 -8 0
-80 -10 -14 -16 0
-80 -18 -22 -24 0
-80 -26 -30 -32 0
-80 -34 -38 -40 0
-80 -42 -46 -48 0
-80 -50 -54 -56 0
-80 -3 -4 -5 0
-80 -11 -12 -13 0
-80 -19 -20 -21 0
-80 -27 -28 -29 0
-80 -35 -36 -37 0
-80 -43 -44 -45 0
-80 -51 -52 -53 0
-80 -3 -5 -7 0
-80 -11 -13 -15 0
-80 -19 -21 -23 0
-80 -27 -29 -31 0
-80 -35 -37 -39 0
-80 -43 -45 -47 0
-80 -51 -53 -55 0
-80 -1 -5 -9 -13 0
-80 -1 -6 -9 -14 0
-80 -1 -7 -9 -15 0
-80 -1 -8 -9 -16 0
-80 -2 -3 -10 -11 0
-80 -2 -4 -10 -12 0
-80 -2 -6 -10 -14 0
-80 -2 -8 -10 -16 0
-80 -3 -4 -11 -12 0
-80 -3 -5 -11 -13 0
-80 -3 -7 -11 -15 0
-80 -4 -5 -12 -13 0
-80 -4 -6 -12 -14 0
-80 -5 -7 -13 -15 0
-80 -6 -8 -14 -16 0
-80 -7 -8 -15 -16 0
-80 -1 -5 -17 -21 0
-80 -1 -6 -17 -22 0
-80 -1 -7 -17 -23 0
-80 -1 -8 -17 -24 0
-80 -2 -3 -18 -19 0
-80 -2 -4 -18 -20 0
-80 -2 -6 -18 -22 0
-80 -2 -8 -18 -24 0
-80 -3 -4 -19 -20 0
-80 -3 -5 -19 -21 0
-80 -3 -7 -19 -23 0
-80 -4 -5 -20 -21 0
-80 -4 -6 -20 -22 0
-80 -5 -7 -21 -23 0
-80 -6 -8 -22 -24 0
-80 -7 -8 -23 -24 0
-80 -9 -13 -41 -45 0
-80 -9 -14 -41 -46 0
-80 -9 -15 -41 -47 0
-80 -9 -16 -41 -48 0
-80 -10 -11 -42 -43 0
-80 -10 -12 -42 -44 0
-80 -10 -14 -42 -46 0
-80 -10 -16 -42 -48 0
-80 -11 -12 -43 -44 0
-80 -11 -13 -43 -45 0
-80 -11 -15 -43 -47 0
-80 -12 -13 -44 -45 0
-80 -12 -14 -44 -46 0
-80 -13 -15 -45 -47 0
-80 -14 -16 -46 -48 0
-80 -15 -16 -47 -48 0
-80 -17 -21 -49 -53 0
-80 -17 -22 -49 -54 0
-80 -17 -23 -49 -55 0
-80 -17 -24 -49 -56 0
-80 -18 -19 -50 -51 0
-80 -18 -20 -50 -52 0
-80 -18 -22 -50 -54 0
-80 -18 -24 -50 -56 0
-80 -19 -20 -51 -52 0
-80 -19 -21 -51 -53 0
-80 -19 -23 -51 -55 0
-80 -20 -21 -52 -53 0
-80 -20 -22 -52 -54 0
-80 -21 -23 -53 -55 0
-80 -22 -24 -54 -56 0
-80 -23 -24 -55 -56 0
-80 -25 -29 -33 -37 0
-80 -25 -30 -33 -38 0
-80 -25 -31 -33 -39 0
-80 -25 -32 -33 -40 0
-80 -26 -27 -34 -35 0
-80 -26 -28 -34 -36 0
-80 -26 -30 -34 -38 0
-80 -26 -32 -34 -40 0
-80 -27 -28 -35 -36 0
-80 -27 -29 -35 -37 0
-80 -27 -31 -35 -39 0
-80 -28 -29 -36 -37 0
-80 -28 -30 -36 -38 0
-80 -29 -31 -37 -39 0
-80 -30 -32 -38 -40 0
-80 -31 -32 -39 -40 0
-80 -25 -29 -41 -45 0
-80 -25 -30 -41 -46 0
-80 -25 -31 -41 -47 0
-80 -25 -32 -41 -48 0
-80 -26 -27 -42 -43 0
-80 -26 -28 -42 -44 0
-80 -26 -30 -42 -46 0
-80 -26 -32 -42 -48 0
-80 -27 -28 -43 -44 0
-80 -27 -29 -43 -45 0
-80 -27 -31 -43 -47 0
-80 -28 -29 -44 -45 0
-80 -28 -30 -44 -46 0
-80 -29 -31 -45 -47 0
-80 -30 -32 -46 -48 0
-80 -31 -32 -47 -48 0
-80 -33 -37 -49 -53 0
-80 -33 -38 -49 -54 0
-80 -33 -39 -49 -55 0
-80 -33 -40 -49 -56 0
-80 -34 -35 -50 -51 0
-80 -34 -36 -50 -52 0
-80 -34 -38 -50 -54 0
-80 -34 -40 -50 -56 0
-80 -35 -36 -51 -52 0
-80 -35 -37 -51 -53 0
-80 -35 -39 -51 -55 0
-80 -36 -37 -52 -53 0
-80 -36 -38 -52 -54 0
-80 -37 -39 -53 -55 0
-80 -38 -40 -54 -56 0
-80 -39 -40 -55 -56 0
-80 -41 -45 -49 -53 0
-80 -41 -46 -49 -54 0
-80 -41 -47 -49 -55 0
-80 -41 -48 -49 -56 0
-80 -42 -43 -50 -51 0
-80 -42 -44 -50 -52 0
-80 -42 -46 -50 -54 0
-80 -42 -48 -50 -56 0
-80 -43 -44 -51 -52 0
-80 -43 -45 -51 -53 0
-80 -43 -47 -51 -55 0
-80 -44 -45 -52 -53 0
-80 -44 -46 -52 -54 0
-80 -45 -47 -53 -55 0
-80 -46 -48 -54 -56 0
-80 -47 -48 -55 -56 0
-80 1 25 49 0
-80 2 26 50 0
-80 3 27 51 0
-80 4 28 52 0
-80 5 29 53 0
-80 6 30 54 0
-80 7 31 55 0
-80 8 32 56 0
-80 1 33 41 0
-80 2 34 42 0
-80 3 35 43 0
-80 4 36 44 0
-80 5 37 45 0
-80 6 38 46 0
-80 7 39 47 0
-80 8 40 48 0
-80 9 17 25 0
-80 10 18 26 0
-80 11 19 27 0
-80 12 20 28 0
-80 13 21 29 0
-80 14 22 30 0
-80 15 23 31 0
-80 16 24 32 0
-80 9 17 33 0
-80 10 18 34 0
-80 11 19 35 0
-80 12 20 36 0
-80 13 21 37 0
-80 14 22 38 0
-80 15 23 39 0
-80 16 24 40 0
-80 9 25 49 0
-80 10 26 50 0
-80 11 27 51 0
-80 12 28 52 0
-80 13 29 53 0
-80 14 30 54 0
-80 15 31 55 0
-80 16 32 56 0
-80 17 33 41 0
-80 18 34 42 0
-80 19 35 43 0
-80 20 36 44 0
-80 21 37 45 0
-80 22 38 46 0
-80 23 39 47 0
-80 24 40 48 0
-80 1 2 25 26 0
-80 1 3 25 27 0
-80 1 4 25 28 0
-80 2 5 26 29 0
-80 2 7 26 31 0
-80 3 6 27 30 0
-80 3 8 27 32 0
-80 4 7 28 31 0
-80 4 8 28 32 0
-80 5 6 29 30 0
-80 5 8 29 32 0
-80 6 7 30 31 0
-80 1 2 33 34 0
-80 1 3 33 35 0
-80 1 4 33 36 0
-80 2 5 34 37 0
-80 2 7 34 39 0
-80 3 6 35 38 0
-80 3 8 35 40 0
-80 4 7 36 39 0
-80 4 8 36 40 0
-80 5 6 37 38 0
-80 5 8 37 40 0
-80 6 7 38 39 0
-80 1 2 41 42 0
-80 1 3 41 43 0
-80 1 4 41 44 0
-80 2 5 42 45 0
-80 2 7 42 47 0
-80 3 6 43 46 0
-80 3 8 43 48 0
-80 4 7 44 47 0
-80 4 8 44 48 0
-80 5 6 45 46 0
-80 5 8 45 48 0
-80 6 7 46 47 0
-80 1 2 49 50 0
-80 1 3 49 51 0
-80 1 4 49 52 0
-80 2 5 50 53 0
-80 2 7 50 55 0
-80 3 6 51 54 0
-80 3 8 51 56 0
-80 4 7 52 55 0
-80 4 8 52 56 0
-80 5 6 53 54 0
-80 5 8 53 56 0
-80 6 7 54 55 0
-80 9 10 17 18 0
-80 9 11 17 19 0
-80 9 12 17 20 0
-80 10 13 18 21 0
-80 10 15 18 23 0
-80 11 14 19 22 0
-80 11 16 19 24 0
-80 12 15 20 23 0
-80 12 16 20 24 0
-80 13 14 21 22 0
-80 13 16 21 24 0
-80 14 15 22 23 0
-80 9 10 25 26 0
-80 9 11 25 27 0
-80 9 12 25 28 0
-80 10 13 26 29 0
-80 10 15 26 31 0
-80 11 14 27 30 0
-80 11 16 27 32 0
-80 12 15 28 31 0
-80 12 16 28 32 0
-80 13 14 29 30 0
-80 13 16 29 32 0
-80 14 15 30 31 0
-80 9 10 33 34 0
-80 9 11 33 35 0
-80 9 12 33 36 0
-80 10 13 34 37 0
-80 10 15 34 39 0
-80 11 14 35 38 0
-80 11 16 35 40 0
-80 12 15 36 39 0
-80 12 16 36 40 0
-80 13 14 37 38 0
-80 13 16 37 40 0
-80 14 15 38 39 0
-80 9 10 49 50 0
-80 9 11 49 51 0
-80 9 12 49 52 0
-80 10 13 50 53 0
-80 10 15 50 55 0
-80 11 14 51 54 0
-80 11 16 51 56 0
-80 12 15 52 55 0
-80 12 16 52 56 0
-80 13 14 53 54 0
-80 13 16 53 56 0
-80 14 15 54 55 0
-80 17 18 25 26 0
-80 17 19 25 27 0
-80 17 20 25 28 0
-80 18 21 26 29 0
-80 18 23 26 31 0
-80 19 22 27 30 0
-80 19 24 27 32 0
-80 20 23 28 31 0
-80 20 24 28 32 0
-80 21 22 29 30 0
-80 21 24 29 32 0
-80 22 23 30 31 0
-80 17 18 33 34 0
-80 17 19 33 35 0
-80 17 20 33 36 0
-80 18 21 34 37 0
-80 18 23 34 39 0
-80 19 22 35 38 0
-80 19 24 35 40 0
-80 20 23 36 39 0
-80 20 24 36 40 0
-80 21 22 37 38 0
-80 21 24 37 40 0
-80 22 23 38 39 0
-80 17 18 41 42 0
-80 17 19 41 43 0
-80 17 20 41 44 0
-80 18 21 42 45 0
-80 18 23 42 47 0
-80 19 22 43 46 0
-80 19 24 43 48 0
-80 20 23 44 47 0
-80 20 24 44 48 0
-80 21 22 45 46 0
-80 21 24 45 48 0
-80 22 23 46 47 0
-80 25 26 49 50 0
-80 25 27 49 51 0
-80 25 28 49 52 0
-80 26 29 50 53 0
-80 26 31 50 55 0
-80 27 30 51 54 0
-80 27 32 51 56 0
-80 28 31 52 55 0
-80 28 32 52 56 0
-80 29 30 53 54 0
-80 29 32 53 56 0
-80 30 31 54 55 0
-80 33 34 41 42 0
-80 33 35 41 43 0
-80 33 36 41 44 0
-80 34 37 42 45 0
-80 34 39 42 47 0
-80 35 38 43 46 0
-80 35 40 43 48 0
-80 36 39 44 47 0
-80 36 40 44 48 0
-80 37 38 45 46 0
-80 37 40 45 48 0
-80 38 39 46 47 0
-81 -1 -2 -3 0
-81 -9 -10 -11 0
-81 -17 -18 -19 0
-81 -25 -26 -27 0
-81 -33 -34 -35 0
-81 -41 -42 -43 0
-81 -49 -50 -51 0
-81 -1 -2 -4 0
-81 -9 -10 -12 0
-81 -17 -18 -20 0
-81 -25 -26 -28 0
-81 -33 -34 -36 0
-81 -41 -42 -44 0
-81 -49 -50 -52 0
-81 -1 -3 -6 0
-81 -9 -11 -14 0
-81 -17 -19 -22 0
-81 -25 -27 -30 0
-81 -33 -35 -38 0
-81 -41 -43 -46 0
-81 -49 -51 -54 0
-81 -1 -4 -7 0
-81 -9 -12 -15 0
-81 -17 -20 -23 0
-81 -25 -28 -31 0
-81 -33 -36 -39 0
-81 -41 -44 -47 0
-81 -49 -52 -55 0
-81 -1 -6 -7 0
-81 -9 -14 -15 0
-81 -17 -22 -23 0
-81 -25 -30 -31 0
-81 -33 -38 -39 0
-81 -41 -46 -47 0
-81 -49 -54 -55 0
-81 -2 -3 -8 0
-81 -10 -11 -16 0
-81 -18 -19 -24 0
-81 -26 -27 -32 0
-81 -34 -35 -40 0
-81 -42 -43 -48 0
-81 -50 -51 -56 0
-81 -2 -4 -5 0
-81 -10 -12 -13 0
-81 -18 -20 -21 0
-81 -26 -28 -29 0
-81 -34 -36 -37 0
-81 -42 -44 -45 0
-81 -50 -52 -53 0
-81 -2 -5 -8 0
-81 -10 -13 -16 0
-81 -18 -21 -24 0
-81 -26 -29 -32 0
-81 -34 -37 -40 0
-81 -42 -45 -48 0
-81 -50 -53 -56 0
-81 -3 -6 -8 0
-81 -11 -14 -16 0
-81 -19 -22 -24 0
-81 -27 -30 -32 0
-81 -35 -38 -40 0
-81 -43 -46 -48 0
-81 -51 -54 -56 0
-81 -4 -5 -7 0
-81 -12 -13 -15 0
-81 -20 -21 -23 0
-81 -28 -29 -31 0
-81 -36 -37 -39 0
-81 -44 -45 -47 0
-81 -52 -53 -55 0
-81 -1 -2 -9 -10 0
-81 -1 -3 -9 -11 0
-81 -1 -4 -9 -12 0
-81 -1 -6 -9 -14 0
-81 -1 -7 -9 -15 0
-81 -2 -3 -10 -11 0
-81 -2 -4 -10 -12 0
-81 -2 -5 -10 -13 0
-81 -2 -8 -10 -16 0
-81 -3 -6 -11 -14 0
-81 -3 -8 -11 -16 0
-81 -4 -5 -12 -13 0
-81 -4 -7 -12 -15 0
-81 -5 -7 -13 -15 0
-81 -5 -8 -13 -16 0
-81 -6 -7 -14 -15 0
-81 -6 -8 -14 -16 0
-81 -1 -2 -17 -18 0
-81 -1 -3 -17 -19 0
-81 -1 -4 -17 -20 0
-81 -1 -6 -17 -22 0
-81 -1 -7 -17 -23 0
-81 -2 -3 -18 -19 0
-81 -2 -4 -18 -20 0
-81 -2 -5 -18 -21 0
-81 -2 -8 -18 -24 0
-81 -3 -6 -19 -22 0
-81 -3 -8 -19 -24 0
-81 -4 -5 -20 -21 0
-81 -4 -7 -20 -23 0
-81 -5 -7 -21 -23 0
-81 -5 -8 -21 -24 0
-81 -6 -7 -22 -23 0
-81 -6 -8 -22 -24 0
-81 -9 -10 -25 -26 0
-81 -9 -11 -25 -27 0
-81 -9 -12 -25 -28 0
-81 -9 -14 -25 -30 0
-81 -9 -15 -25 -31 0
-81 -10 -11 -26 -27 0
-81 -10 -12 -26 -28 0
-81 -10 -13 -26 -29 0
-81 -10 -16 -26 -32 0
-81 -11 -14 -27 -30 0
-81 -11 -16 -27 -32 0
-81 -12 -13 -28 -29 0
-81 -12 -15 -28 -31 0
-81 -13 -15 -29 -31 0
-81 -13 -16 -29 -32 0
-81 -14 -15 -30 -31 0
-81 -14 -16 -30 -32 0
-81 -9 -10 -33 -34 0
-81 -9 -11 -33 -35 0
-81 -9 -12 -33 -36 0
-81 -9 -14 -33 -38 0
-81 -9 -15 -33 -39 0
-81 -10 -11 -34 -35 0
-81 -10 -12 -34 -36 0
-81 -10 -13 -34 -37 0
-81 -10 -16 -34 -40 0
-81 -11 -14 -35 -38 0
-81 -11 -16 -35 -40 0
-81 -12 -13 -36 -37 0
-81 -12 -15 -36 -39 0
-81 -13 -15 -37 -39 0
-81 -13 -16 -37 -40 0
-81 -14 -15 -38 -39 0
-81 -14 -16 -38 -40 0
-81 -17 -18 -41 -42 0
-81 -17 -19 -41 -43 0
-81 -17 -20 -41 -44 0
-81 -17 -22 -41 -46 0
-81 -17 -23 -41 -47 0
-81 -18 -19 -42 -43 0
-81 -18 -20 -42 -44 0
-81 -18 -21 -42 -45 0
-81 -18 -24 -42 -48 0
-81 -19 -22 -43 -46 0
-81 -19 -24 -43 -48 0
-81 -20 -21 -44 -45 0
-81 -20 -23 -44 -47 0
-81 -21 -23 -45 -47 0
-81 -21 -24 -45 -48 0
-81 -22 -23 -46 -47 0
-81 -22 -24 -46 -48 0
-81 -17 -18 -49 -50 0
-81 -17 -19 -49 -51 0
-81 -17 -20 -49 -52 0
-81 -17 -22 -49 -54 0
-81 -17 -23 -49 -55 0
-81 -18 -19 -50 -51 0
-81 -18 -20 -50 -52 0
-81 -18 -21 -50 -53 0
-81 -18 -24 -50 -56 0
-81 -19 -22 -51 -54 0
-81 -19 -24 -51 -56 0
-81 -20 -21 -52 -53 0
-81 -20 -23 -52 -55 0
-81 -21 -23 -53 -55 0
-81 -21 -24 -53 -56 0
-81 -22 -23 -54 -55 0
-81 -22 -24 -54 -56 0
-81 -25 -26 -41 -42 0
-81 -25 -27 -41 -43 0
-81 -25 -28 -41 -44 0
-81 -25 -30 -41 -46 0
-81 -25 -31 -41 -47 0
-81 -26 -27 -42 -43 0
-81 -26 -28 -42 -44 0
-81 -26 -29 -42 -45 0
-81 -26 -32 -42 -48 0
-81 -27 -30 -43 -46 0
-81 -27 -32 -43 -48 0
-81 -28 -29 -44 -45 0
-81 -28 -31 -44 -47 0
-81 -29 -31 -45 -47 0
-81 -29 -32 -45 -48 0
-81 -30 -31 -46 -47 0
-81 -30 -32 -46 -48 0
-81 -25 -26 -49 -50 0
-81 -25 -27 -49 -51 0
-81 -25 -28 -49 -52 0
-81 -25 -30 -49 -54 0
-81 -25 -31 -49 -55 0
-81 -26 -27 -50 -51 0
-81 -26 -28 -50 -52 0
-81 -26 -29 -50 -53 0
-81 -26 -32 -50 -56 0
-81 -27 -30 -51 -54 0
-81 -27 -32 -51 -56 0
-81 -28 -29 -52 -53 0
-81 -28 -31 -52 -55 0
-81 -29 -31 -53 -55 0
-81 -29 -32 -53 -56 0
-81 -30 -31 -54 -55 0
-81 -30 -32 -54 -56 0
-81 -33 -34 -41 -42 0
-81 -33 -35 -41 -43 0
-81 -33 -36 -41 -44 0
-81 -33 -38 -41 -46 0
-81 -33 -39 -41 -47 0
-81 -34 -35 -42 -43 0
-81 -34 -36 -42 -44 0
-81 -34 -37 -42 -45 0
-81 -34 -40 -42 -48 0
-81 -35 -38 -43 -46 0
-81 -35 -40 -43 -48 0
-81 -36 -37 -44 -45 0
-81 -36 -39 -44 -47 0
-81 -37 -39 -45 -47 0
-81 -37 -40 -45 -48 0
-81 -38 -39 -46 -47 0
-81 -38 -40 -46 -48 0
-81 -33 -34 -49 -50 0
-81 -33 -35 -49 -51 0
-81 -33 -36 -49 -52 0
-81 -33 -38 -49 -54 0
-81 -33 -39 -49 -55 0
-81 -34 -35 -50 -51 0
-81 -34 -36 -50 -52 0
-81 -34 -37 -50 -53 0
-81 -34 -40 -50 -56 0
-81 -35 -38 -51 -54 0
-81 -35 -40 -51 -56 0
-81 -36 -37 -52 -53 0
-81 -36 -39 -52 -55 0
-81 -37 -39 -53 -55 0
-81 -37 -40 -53 -56 0
-81 -38 -39 -54 -55 0
-81 -38 -40 -54 -56 0
-81 1 25 33 0
-81 2 26 34 0
-81 3 27 35 0
-81 4 28 36 0
-81 5 29 37 0
-81 6 30 38 0
-81 7 31 39 0
-81 8 32 40 0
-81 1 41 49 0
-81 2 42 50 0
-81 3 43 51 0
-81 4 44 52 0
-81 5 45 53 0
-81 6 46 54 0
-81 7 47 55 0
-81 8 48 56 0
-81 9 41 49 0
-81 10 42 50 0
-81 11 43 51 0
-81 12 44 52 0
-81 13 45 53 0
-81 14 46 54 0
-81 15 47 55 0
-81 16 48 56 0
-81 17 25 33 0
-81 18 26 34 0
-81 19 27 35 0
-81 20 28 36 0
-81 21 29 37 0
-81 22 30 38 0
-81 23 31 39 0
-81 24 32 40 0
-81 1 5 25 29 0
-81 1 8 25 32 0
-81 2 6 26 30 0
-81 2 7 26 31 0
-81 3 4 27 28 0
-81 3 5 27 29 0
-81 3 7 27 31 0
-81 4 6 28 30 0
-81 4 8 28 32 0
-81 5 6 29 30 0
-81 7 8 31 32 0
-81 1 5 33 37 0
-81 1 8 33 40 0
-81 2 6 34 38 0
-81 2 7 34 39 0
-81 3 4 35 36 0
-81 3 5 35 37 0
-81 3 7 35 39 0
-81 4 6 36 38 0
-81 4 8 36 40 0
-81 5 6 37 38 0
-81 7 8 39 40 0
-81 1 5 41 45 0
-81 1 8 41 48 0
-81 2 6 42 46 0
-81 2 7 42 47 0
-81 3 4 43 44 0
-81 3 5 43 45 0
-81 3 7 43 47 0
-81 4 6 44 46 0
-81 4 8 44 48 0
-81 5 6 45 46 0
-81 7 8 47 48 0
-81 1 5 49 53 0
-81 1 8 49 56 0
-81 2 6 50 54 0
-81 2 7 50 55 0
-81 3 4 51 52 0
-81 3 5 51 53 0
-81 3 7 51 55 0
-81 4 6 52 54 0
-81 4 8 52 56 0
-81 5 6 53 54 0
-81 7 8 55 56 0
-81 9 13 17 21 0
-81 9 16 17 24 0
-81 10 14 18 22 0
-81 10 15 18 23 0
-81 11 12 19 20 0
-81 11 13 19 21 0
-81 11 15 19 23 0
-81 12 14 20 22 0
-81 12 16 20 24 0
-81 13 14 21 22 0
-81 15 16 23 24 0
-81 9 13 41 45 0
-81 9 16 41 48 0
-81 10 14 42 46 0
-81 10 15 42 47 0
-81 11 12 43 44 0
-81 11 13 43 45 0
-81 11 15 43 47 0
-81 12 14 44 46 0
-81 12 16 44 48 0
-81 13 14 45 46 0
-81 15 16 47 48 0
-81 9 13 49 53 0
-81 9 16 49 56 0
-81 10 14 50 54 0
-81 10 15 50 55 0
-81 11 12 51 52 0
-81 11 13 51 53 0
-81 11 15 51 55 0
-81 12 14 52 54 0
-81 12 16 52 56 0
-81 13 14 53 54 0
-81 15 16 55 56 0
-81 17 21 25 29 0
-81 17 24 25 32 0
-81 18 22 26 30 0
-81 18 23 26 31 0
-81 19 20 27 28 0
-81 19 21 27 29 0
-81 19 23 27 31 0
-81 20 22 28 30 0
-81 20 24 28 32 0
-81 21 22 29 30 0
-81 23 24 31 32 0
-81 17 21 33 37 0
-81 17 24 33 40 0
-81 18 22 34 38 0
-81 18 23 34 39 0
-81 19 20 35 36 0
-81 19 21 35 37 0
-81 19 23 35 39 0
-81 20 22 36 38 0
-81 20 24 36 40 0
-81 21 22 37 38 0
-81 23 24 39 40 0
-81 25 29 33 37 0
-81 25 32 33 40 0
-81 26 30 34 38 0
-81 26 31 34 39 0
-81 27 28 35 36 0
-81 27 29 35 37 0
-81 27 31 35 39 0
-81 28 30 36 38 0
-81 28 32 36 40 0
-81 29 30 37 38 0
-81 31 32 39 40 0
-81 41 45 49 53 0
-81 41 48 49 56 0
-81 42 46 50 54 0
-81 42 47 50 55 0
-81 43 44 51 52 0
-81 43 45 51 53 0
-81 43 47 51 55 0
-81 44 46 52 54 0
-81 44 48 52 56 0
-81 45 46 53 54 0
-81 47 48 55 56 0
-82 -1 -3 -7 0
-82 -9 -11 -15 0
-82 -17 -19 -23 0
-82 -25 -27 -31 0
-82 -33 -35 -39 0
-82 -41 -43 -47 0
-82 -49 -51 -55 0
-82 -1 -3 -8 0
-82 -9 -11 -16 0
-82 -17 -19 -24 0
-82 -25 -27 -32 0
-82 -33 -35 -40 0
-82 -41 -43 -48 0
-82 -49 -51 -56 0
-82 -1 -4 -6 0
-82 -9 -12 -14 0
-82 -17 -20 -22 0
-82 -25 -28 -30 0
-82 -33 -36 -38 0
-82 -41 -44 -46 0
-82 -49 -52 -54 0
-82 -1 -4 -8 0
-82 -9 -12 -16 0
-82 -17 -20 -24 0
-82 -25 -28 -32 0
-82 -33 -36 -40 0
-82 -41 -44 -48 0
-82 -49 -52 -56 0
-82 -1 -6 -7 0
-82 -9 -14 -15 0
-82 -17 -22 -23 0
-82 -25 -30 -31 0
-82 -33 -38 -39 0
-82 -41 -46 -47 0
-82 -49 -54 -55 0
-82 -2 -3 -5 0
-82 -10 -11 -13 0
-82 -18 -19 -21 0
-82 -26 -27 -29 0
-82 -34 -35 -37 0
-82 -42 -43 -45 0
-82 -50 -51 -53 0
-82 -2 -3 -7 0
-82 -10 -11 -15 0
-82 -18 -19 -23 0
-82 -26 -27 -31 0
-82 -34 -35 -39 0
-82 -42 -43 -47 0
-82 -50 -51 -55 0
-82 -2 -4 -5 0
-82 -10 -12 -13 0
-82 -18 -20 -21 0
-82 -26 -28 -29 0
-82 -34 -36 -37 0
-82 -42 -44 -45 0
-82 -50 -52 -53 0
-82 -2 -4 -6 0
-82 -10 -12 -14 0
-82 -18 -20 -22 0
-82 -26 -28 -30 0
-82 -34 -36 -38 0
-82 -42 -44 -46 0
-82 -50 -52 -54 0
-82 -2 -6 -7 0
-82 -10 -14 -15 0
-82 -18 -22 -23 0
-82 -26 -30 -31 0
-82 -34 -38 -39 0
-82 -42 -46 -47 0
-82 -50 -54 -55 0
-82 -3 -5 -8 0
-82 -11 -13 -16 0
-82 -19 -21 -24 0
-82 -27 -29 -32 0
-82 -35 -37 -40 0
-82 -43 -45 -48 0
-82 -51 -53 -56 0
-82 -4 -5 -8 0
-82 -12 -13 -16 0
-82 -20 -21 -24 0
-82 -28 -29 -32 0
-82 -36 -37 -40 0
-82 -44 -45 -48 0
-82 -52 -53 -56 0
-82 -1 -3 -9 -11 0
-82 -1 -4 -9 -12 0
-82 -1 -6 -9 -14 0
-82 -1 -7 -9 -15 0
-82 -1 -8 -9 -16 0
-82 -2 -3 -10 -11 0
-82 -2 -4 -10 -12 0
-82 -2 -5 -10 -13 0
-82 -2 -6 -10 -14 0
-82 -2 -7 -10 -15 0
-82 -3 -5 -11 -13 0
-82 -3 -7 -11 -15 0
-82 -3 -8 -11 -16 0
-82 -4 -5 -12 -13 0
-82 -4 -6 -12 -14 0
-82 -4 -8 -12 -16 0
-82 -5 -8 -13 -16 0
-82 -6 -7 -14 -15 0
-82 -1 -3 -17 -19 0
-82 -1 -4 -17 -20 0
-82 -1 -6 -17 -22 0
-82 -1 -7 -17 -23 0
-82 -1 -8 -17 -24 0
-82 -2 -3 -18 -19 0
-82 -2 -4 -18 -20 0
-82 -2 -5 -18 -21 0
-82 -2 -6 -18 -22 0
-82 -2 -7 -18 -23 0
-82 -3 -5 -19 -21 0
-82 -3 -7 -19 -23 0
-82 -3 -8 -19 -24 0
-82 -4 -5 -20 -21 0
-82 -4 -6 -20 -22 0
-82 -4 -8 -20 -24 0
-82 -5 -8 -21 -24 0
-82 -6 -7 -22 -23 0
-82 -9 -11 -25 -27 0
-82 -9 -12 -25 -28 0
-82 -9 -14 -25 -30 0
-82 -9 -15 -25 -31 0
-82 -9 -16 -25 -32 0
-82 -10 -11 -26 -27 0
-82 -10 -12 -26 -28 0
-82 -10 -13 -26 -29 0
-82 -10 -14 -26 -30 0
-82 -10 -15 -26 -31 0
-82 -11 -13 -27 -29 0
-82 -11 -15 -27 -31 0
-82 -11 -16 -27 -32 0
-82 -12 -13 -28 -29 0
-82 -12 -14 -28 -30 0
-82 -12 -16 -28 -32 0
-82 -13 -16 -29 -32 0
-82 -14 -15 -30 -31 0
-82 -9 -11 -33 -35 0
-82 -9 -12 -33 -36 0
-82 -9 -14 -33 -38 0
-82 -9 -15 -33 -39 0
-82 -9 -16 -33 -40 0
-82 -10 -11 -34 -35 0
-82 -10 -12 -34 -36 0
-82 -10 -13 -34 -37 0
-82 -10 -14 -34 -38 0
-82 -10 -15 -34 -39 0
-82 -11 -13 -35 -37 0
-82 -11 -15 -35 -39 0
-82 -11 -16 -35 -40 0
-82 -12 -13 -36 -37 0
-82 -12 -14 -36 -38 0
-82 -12 -16 -36 -40 0
-82 -13 -16 -37 -40 0
-82 -14 -15 -38 -39 0
-82 -17 -19 -41 -43 0
-82 -17 -20 -41 -44 0
-82 -17 -22 -41 -46 0
-82 -17 -23 -41 -47 0
-82 -17 -24 -41 -48 0
-82 -18 -19 -42 -43 0
-82 -18 -20 -42 -44 0
-82 -18 -21 -42 -45 0
-82 -18 -22 -42 -46 0
-82 -18 -23 -42 -47 0
-82 -19 -21 -43 -45 0
-82 -19 -23 -43 -47 0
-82 -19 -24 -43 -48 0
-82 -20 -21 -44 -45 0
-82 -20 -22 -44 -46 0
-82 -20 -24 -44 -48 0
-82 -21 -24 -45 -48 0
-82 -22 -23 -46 -47 0
-82 -17 -19 -49 -51 0
-82 -17 -20 -49 -52 0
-82 -17 -22 -49 -54 0
-82 -17 -23 -49 -55 0
-82 -17 -24 -49 -56 0
-82 -18 -19 -50 -51 0
-82 -18 -20 -50 -52 0
-82 -18 -21 -50 -53 0
-82 -18 -22 -50 -54 0
-82 -18 -23 -50 -55 0
-82 -19 -21 -51 -53 0
-82 -19 -23 -51 -55 0
-82 -19 -24 -51 -56 0
-82 -20 -21 -52 -53 0
-82 -20 -22 -52 -54 0
-82 -20 -24 -52 -56 0
-82 -21 -24 -53 -56 0
-82 -22 -23 -54 -55 0
-82 -25 -27 -41 -43 0
-82 -25 -28 -41 -44 0
-82 -25 -30 -41 -46 0
-82 -25 -31 -41 -47 0
-82 -25 -32 -41 -48 0
-82 -26 -27 -42 -43 0
-82 -26 -28 -42 -44 0
-82 -26 -29 -42 -45 0
-82 -26 -30 -42 -46 0
-82 -26 -31 -42 -47 0
-82 -27 -29 -43 -45 0
-82 -27 -31 -43 -47 0
-82 -27 -32 -43 -48 0
-82 -28 -29 -44 -45 0
-82 -28 -30 -44 -46 0
-82 -28 -32 -44 -48 0
-82 -29 -32 -45 -48 0
-82 -30 -31 -46 -47 0
-82 -25 -27 -49 -51 0
-82 -25 -28 -49 -52 0
-82 -25 -30 -49 -54 0
-82 -25 -31 -49 -55 0
-82 -25 -32 -49 -56 0
-82 -26 -27 -50 -51 0
-82 -26 -28 -50 -52 0
-82 -26 -29 -50 -53 0
-82 -26 -30 -50 -54 0
-82 -26 -31 -50 -55 0
-82 -27 -29 -51 -53 0
-82 -27 -31 -51 -55 0
-82 -27 -32 -51 -56 0
-82 -28 -29 -52 -53 0
-82 -28 -30 -52 -54 0
-82 -28 -32 -52 -56 0
-82 -29 -32 -53 -56 0
-82 -30 -31 -54 -55 0
-82 -33 -35 -41 -43 0
-82 -33 -36 -41 -44 0
-82 -33 -38 -41 -46 0
-82 -33 -39 -41 -47 0
-82 -33 -40 -41 -48 0
-82 -34 -35 -42 -43 0
-82 -34 -36 -42 -44 0
-82 -34 -37 -42 -45 0
-82 -34 -38 -42 -46 0
-82 -34 -39 -42 -47 0
-82 -35 -37 -43 -45 0
-82 -35 -39 -43 -47 0
-82 -35 -40 -43 -48 0
-82 -36 -37 -44 -45 0
-82 -36 -38 -44 -46 0
-82 -36 -40 -44 -48 0
-82 -37 -40 -45 -48 0
-82 -38 -39 -46 -47 0
-82 -33 -35 -49 -51 0
-82 -33 -36 -49 -52 0
-82 -33 -38 -49 -54 0
-82 -33 -39 -49 -55 0
-82 -33 -40 -49 -56 0
-82 -34 -35 -50 -51 0
-82 -34 -36 -50 -52 0
-82 -34 -37 -50 -53 0
-82 -34 -38 -50 -54 0
-82 -34 -39 -50 -55 0
-82 -35 -37 -51 -53 0
-82 -35 -39 -51 -55 0
-82 -35 -40 -51 -56 0
-82 -36 -37 -52 -53 0
-82 -36 -38 -52 -54 0
-82 -36 -40 -52 -56 0
-82 -37 -40 -53 -56 0
-82 -38 -39 -54 -55 0
-82 1 25 33 0
-82 2 26 34 0
-82 3 27 35 0
-82 4 28 36 0
-82 5 29 37 0
-82 6 30 38 0
-82 7 31 39 0
-82 8 32 40 0
-82 1 41 49 0
-82 2 42 50 0
-82 3 43 51 0
-82 4 44 52 0
-82 5 45 53 0
-82 6 46 54 0
-82 7 47 55 0
-82 8 48 56 0
-82 9 41 49 0
-82 10 42 50 0
-82 11 43 51 0
-82 12 44 52 0
-82 13 45 53 0
-82 14 46 54 0
-82 15 47 55 0
-82 16 48 56 0
-82 17 25 33 0
-82 18 26 34 0
-82 19 27 35 0
-82 20 28 36 0
-82 21 29 37 0
-82 22 30 38 0
-82 23 31 39 0
-82 24 32 40 0
-82 1 2 25 26 0
-82 1 5 25 29 0
-82 2 8 26 32 0
-82 3 4 27 28 0
-82 3 6 27 30 0
-82 4 7 28 31 0
-82 5 6 29 30 0
-82 5 7 29 31 0
-82 6 8 30 32 0
-82 7 8 31 32 0
-82 1 2 33 34 0
-82 1 5 33 37 0
-82 2 8 34 40 0
-82 3 4 35 36 0
-82 3 6 35 38 0
-82 4 7 36 39 0
-82 5 6 37 38 0
-82 5 7 37 39 0
-82 6 8 38 40 0
-82 7 8 39 40 0
-82 1 2 41 42 0
-82 1 5 41 45 0
-82 2 8 42 48 0
-82 3 4 43 44 0
-82 3 6 43 46 0
-82 4 7 44 47 0
-82 5 6 45 46 0
-82 5 7 45 47 0
-82 6 8 46 48 0
-82 7 8 47 48 0
-82 1 2 49 50 0
-82 1 5 49 53 0
-82 2 8 50 56 0
-82 3 4 51 52 0
-82 3 6 51 54 0
-82 4 7 52 55 0
-82 5 6 53 54 0
-82 5 7 53 55 0
-82 6 8 54 56 0
-82 7 8 55 56 0
-82 9 10 17 18 0
-82 9 13 17 21 0
-82 10 16 18 24 0
-82 11 12 19 20 0
-82 11 14 19 22 0
-82 12 15 20 23 0
-82 13 14 21 22 0
-82 13 15 21 23 0
-82 14 16 22 24 0
-82 15 16 23 24 0
-82 9 10 41 42 0
-82 9 13 41 45 0
-82 10 16 42 48 0
-82 11 12 43 44 0
-82 11 14 43 46 0
-82 12 15 44 47 0
-82 13 14 45 46 0
-82 13 15 45 47 0
-82 14 16 46 48 0
-82 15 16 47 48 0
-82 9 10 49 50 0
-82 9 13 49 53 0
-82 10 16 50 56 0
-82 11 12 51 52 0
-82 11 14 51 54 0
-82 12 15 52 55 0
-82 13 14 53 54 0
-82 13 15 53 55 0
-82 14 16 54 56 0
-82 15 16 55 56 0
-82 17 18 25 26 0
-82 17 21 25 29 0
-82 18 24 26 32 0
-82 19 20 27 28 0
-82 19 22 27 30 0
-82 20 23 28 31 0
-82 21 22 29 30 0
-82 21 23 29 31 0
-82 22 24 30 32 0
-82 23 24 31 32 0
-82 17 18 33 34 0
-82 17 21 33 37 0
-82 18 24 34 40 0
-82 19 20 35 36 0
-82 19 22 35 38 0
-82 20 23 36 39 0
-82 21 22 37 38 0
-82 21 23 37 39 0
-82 22 24 38 40 0
-82 23 24 39 40 0
-82 25 26 33 34 0
-82 25 29 33 37 0
-82 26 32 34 40 0
-82 27 28 35 36 0
-82 27 30 35 38 0
-82 28 31 36 39 0
-82 29 30 37 38 0
-82 29 31 37 39 0
-82 30 32 38 40 0
-82 31 32 39 40 0
-82 41 42 49 50 0
-82 41 45 49 53 0
-82 42 48 50 56 0
-82 43 44 51 52 0
-82 43 46 51 54 0
-82 44 47 52 55 0
-82 45 46 53 54 0
-82 45 47 53 55 0
-82 46 48 54 56 0
-82 47 48 55 56 0
-83 -1 -5 -7 0
-83 -9 -13 -15 0
-83 -17 -21 -23 0
-83 -25 -29 -31 0
-83 -33 -37 -39 0
-83 -41 -45 -47 0
-83 -49 -53 -55 0
-83 -1 -6 -8 0
-83 -9 -14 -16 0
-83 -17 -22 -24 0
-83 -25 -30 -32 0
-83 -33 -38 -40 0
-83 -41 -46 -48 0
-83 -49 -54 -56 0
-83 -1 -7 -8 0
-83 -9 -15 -16 0
-83 -17 -23 -24 0
-83 -25 -31 -32 0
-83 -33 -39 -40 0
-83 -41 -47 -48 0
-83 -49 -55 -56 0
-83 -2 -3 -4 0
-83 -10 -11 -12 0
-83 -18 -19 -20 0
-83 -26 -27 -28 0
-83 -34 -35 -36 0
-83 -42 -43 -44 0
-83 -50 -51 -52 0
-83 -2 -4 -6 0
-83 -10 -12 -14 0
-83 -18 -20 -22 0
-83 -26 -28 -30 0
-83 -34 -36 -38 0
-83 -42 -44 -46 0
-83 -50 -52 -54 0
-83 -2 -6 -8 0
-83 -10 -14 -16 0
-83 -18 -22 -24 0
-83 -26 -30 -32 0
-83 -34 -38 -40 0
-83 -42 -46 -48 0
-83 -50 -54 -56 0
-83 -3 -4 -5 0
-83 -11 -12 -13 0
-83 -19 -20 -21 0
-83 -27 -28 -29 0
-83 -35 -36 -37 0
-83 -43 -44 -45 0
-83 -51 -52 -53 0
-83 -3 -5 -7 0
-83 -11 -13 -15 0
-83 -19 -21 -23 0
-83 -27 -29 -31 0
-83 -35 -37 -39 0
-83 -43 -45 -47 0
-83 -51 -53 -55 0
-83 -1 -5 -9 -13 0
-83 -1 -6 -9 -14 0
-83 -1 -7 -9 -15 0
-83 -1 -8 -9 -16 0
-83 -2 -3 -10 -11 0
-83 -2 -4 -10 -12 0
-83 -2 -6 -10 -14 0
-83 -2 -8 -10 -16 0
-83 -3 -4 -11 -12 0
-83 -3 -5 -11 -13 0
-83 -3 -7 -11 -15 0
-83 -4 -5 -12 -13 0
-83 -4 -6 -12 -14 0
-83 -5 -7 -13 -15 0
-83 -6 -8 -14 -16 0
-83 -7 -8 -15 -16 0
-83 -1 -5 -17 -21 0
-83 -1 -6 -17 -22 0
-83 -1 -7 -17 -23 0
-83 -1 -8 -17 -24 0
-83 -2 -3 -18 -19 0
-83 -2 -4 -18 -20 0
-83 -2 -6 -18 -22 0
-83 -2 -8 -18 -24 0
-83 -3 -4 -19 -20 0
-83 -3 -5 -19 -21 0
-83 -3 -7 -19 -23 0
-83 -4 -5 -20 -21 0
-83 -4 -6 -20 -22 0
-83 -5 -7 -21 -23 0
-83 -6 -8 -22 -24 0
-83 -7 -8 -23 -24 0
-83 -9 -13 -25 -29 0
-83 -9 -14 -25 -30 0
-83 -9 -15 -25 -31 0
-83 -9 -16 -25 -32 0
-83 -10 -11 -26 -27 0
-83 -10 -12 -26 -28 0
-83 -10 -14 -26 -30 0
-83 -10 -16 -26 -32 0
-83 -11 -12 -27 -28 0
-83 -11 -13 -27 -29 0
-83 -11 -15 -27 -31 0
-83 -12 -13 -28 -29 0
-83 -12 -14 -28 -30 0
-83 -13 -15 -29 -31 0
-83 -14 -16 -30 -32 0
-83 -15 -16 -31 -32 0
-83 -9 -13 -33 -37 0
-83 -9 -14 -33 -38 0
-83 -9 -15 -33 -39 0
-83 -9 -16 -33 -40 0
-83 -10 -11 -34 -35 0
-83 -10 -12 -34 -36 0
-83 -10 -14 -34 -38 0
-83 -10 -16 -34 -40 0
-83 -11 -12 -35 -36 0
-83 -11 -13 -35 -37 0
-83 -11 -15 -35 -39 0
-83 -12 -13 -36 -37 0
-83 -12 -14 -36 -38 0
-83 -13 -15 -37 -39 0
-83 -14 -16 -38 -40 0
-83 -15 -16 -39 -40 0
-83 -17 -21 -41 -45 0
-83 -17 -22 -41 -46 0
-83 -17 -23 -41 -47 0
-83 -17 -24 -41 -48 0
-83 -18 -19 -42 -43 0
-83 -18 -20 -42 -44 0
-83 -18 -22 -42 -46 0
-83 -18 -24 -42 -48 0
-83 -19 -20 -43 -44 0
-83 -19 -21 -43 -45 0
-83 -19 -23 -43 -47 0
-83 -20 -21 -44 -45 0
-83 -20 -22 -44 -46 0
-83 -21 -23 -45 -47 0
-83 -22 -24 -46 -48 0
-83 -23 -24 -47 -48 0
-83 -17 -21 -49 -53 0
-83 -17 -22 -49 -54 0
-83 -17 -23 -49 -55 0
-83 -17 -24 -49 -56 0
-83 -18 -19 -50 -51 0
-83 -18 -20 -50 -52 0
-83 -18 -22 -50 -54 0
-83 -18 -24 -50 -56 0
-83 -19 -20 -51 -52 0
-83 -19 -21 -51 -53 0
-83 -19 -23 -51 -55 0
-83 -20 -21 -52 -53 0
-83 -20 -22 -52 -54 0
-83 -21 -23 -53 -55 0
-83 -22 -24 -54 -56 0
-83 -23 -24 -55 -56 0
-83 -25 -29 -41 -45 0
-83 -25 -30 -41 -46 0
-83 -25 -31 -41 -47 0
-83 -25 -32 -41 -48 0
-83 -26 -27 -42 -43 0
-83 -26 -28 -42 -44 0
-83 -26 -30 -42 -46 0
-83 -26 -32 -42 -48 0
-83 -27 -28 -43 -44 0
-83 -27 -29 -43 -45 0
-83 -27 -31 -43 -47 0
-83 -28 -29 -44 -45 0
-83 -28 -30 -44 -46 0
-83 -29 -31 -45 -47 0
-83 -30 -32 -46 -48 0
-83 -31 -32 -47 -48 0
-83 -25 -29 -49 -53 0
-83 -25 -30 -49 -54 0
-83 -25 -31 -49 -55 0
-83 -25 -32 -49 -56 0
-83 -26 -27 -50 -51 0
-83 -26 -28 -50 -52 0
-83 -26 -30 -50 -54 0
-83 -26 -32 -50 -56 0
-83 -27 -28 -51 -52 0
-83 -27 -29 -51 -53 0
-83 -27 -31 -51 -55 0
-83 -28 -29 -52 -53 0
-83 -28 -30 -52 -54 0
-83 -29 -31 -53 -55 0
-83 -30 -32 -54 -56 0
-83 -31 -32 -55 -56 0
-83 -33 -37 -41 -45 0
-83 -33 -38 -41 -46 0
-83 -33 -39 -41 -47 0
-83 -33 -40 -41 -48 0
-83 -34 -35 -42 -43 0
-83 -34 -36 -42 -44 0
-83 -34 -38 -42 -46 0
-83 -34 -40 -42 -48 0
-83 -35 -36 -43 -44 0
-83 -35 -37 -43 -45 0
-83 -35 -39 -43 -47 0
-83 -36 -37 -44 -45 0
-83 -36 -38 -44 -46 0
-83 -37 -39 -45 -47 0
-83 -38 -40 -46 -48 0
-83 -39 -40 -47 -48 0
-83 -33 -37 -49 -53 0
-83 -33 -38 -49 -54 0
-83 -33 -39 -49 -55 0
-83 -33 -40 -49 -56 0
-83 -34 -35 -50 -51 0
-83 -34 -36 -50 -52 0
-83 -34 -38 -50 -54 0
-83 -34 -40 -50 -56 0
-83 -35 -36 -51 -52 0
-83 -35 -37 -51 -53 0
-83 -35 -39 -51 -55 0
-83 -36 -37 -52 -53 0
-83 -36 -38 -52 -54 0
-83 -37 -39 -53 -55 0
-83 -38 -40 -54 -56 0
-83 -39 -40 -55 -56 0
-83 1 25 33 0
-83 2 26 34 0
-83 3 27 35 0
-83 4 28 36 0
-83 5 29 37 0
-83 6 30 38 0
-83 7 31 39 0
-83 8 32 40 0
-83 1 41 49 0
-83 2 42 50 0
-83 3 43 51 0
-83 4 44 52 0
-83 5 45 53 0
-83 6 46 54 0
-83 7 47 55 0
-83 8 48 56 0
-83 9 41 49 0
-83 10 42 50 0
-83 11 43 51 0
-83 12 44 52 0
-83 13 45 53 0
-83 14 46 54 0
-83 15 47 55 0
-83 16 48 56 0
-83 17 25 33 0
-83 18 26 34 0
-83 19 27 35 0
-83 20 28 36 0
-83 21 29 37 0
-83 22 30 38 0
-83 23 31 39 0
-83 24 32 40 0
-83 1 2 25 26 0
-83 1 3 25 27 0
-83 1 4 25 28 0
-83 2 5 26 29 0
-83 2 7 26 31 0
-83 3 6 27 30 0
-83 3 8 27 32 0
-83 4 7 28 31 0
-83 4 8 28 32 0
-83 5 6 29 30 0
-83 5 8 29 32 0
-83 6 7 30 31 0
-83 1 2 33 34 0
-83 1 3 33 35 0
-83 1 4 33 36 0
-83 2 5 34 37 0
-83 2 7 34 39 0
-83 3 6 35 38 0
-83 3 8 35 40 0
-83 4 7 36 39 0
-83 4 8 36 40 0
-83 5 6 37 38 0
-83 5 8 37 40 0
-83 6 7 38 39 0
-83 1 2 41 42 0
-83 1 3 41 43 0
-83 1 4 41 44 0
-83 2 5 42 45 0
-83 2 7 42 47 0
-83 3 6 43 46 0
-83 3 8 43 48 0
-83 4 7 44 47 0
-83 4 8 44 48 0
-83 5 6 45 46 0
-83 5 8 45 48 0
-83 6 7 46 47 0
-83 1 2 49 50 0
-83 1 3 49 51 0
-83 1 4 49 52 0
-83 2 5 50 53 0
-83 2 7 50 55 0
-83 3 6 51 54 0
-83 3 8 51 56 0
-83 4 7 52 55 0
-83 4 8 52 56 0
-83 5 6 53 54 0
-83 5 8 53 56 0
-83 6 7 54 55 0
-83 9 10 17 18 0
-83 9 11 17 19 0
-83 9 12 17 20 0
-83 10 13 18 21 0
-83 10 15 18 23 0
-83 11 14 19 22 0
-83 11 16 19 24 0
-83 12 15 20 23 0
-83 12 16 20 24 0
-83 13 14 21 22 0
-83 13 16 21 24 0
-83 14 15 22 23 0
-83 9 10 41 42 0
-83 9 11 41 43 0
-83 9 12 41 44 0
-83 10 13 42 45 0
-83 10 15 42 47 0
-83 11 14 43 46 0
-83 11 16 43 48 0
-83 12 15 44 47 0
-83 12 16 44 48 0
-83 13 14 45 46 0
-83 13 16 45 48 0
-83 14 15 46 47 0
-83 9 10 49 50 0
-83 9 11 49 51 0
-83 9 12 49 52 0
-83 10 13 50 53 0
-83 10 15 50 55 0
-83 11 14 51 54 0
-83 11 16 51 56 0
-83 12 15 52 55 0
-83 12 16 52 56 0
-83 13 14 53 54 0
-83 13 16 53 56 0
-83 14 15 54 55 0
-83 17 18 25 26 0
-83 17 19 25 27 0
-83 17 20 25 28 0
-83 18 21 26 29 0
-83 18 23 26 31 0
-83 19 22 27 30 0
-83 19 24 27 32 0
-83 20 23 28 31 0
-83 20 24 28 32 0
-83 21 22 29 30 0
-83 21 24 29 32 0
-83 22 23 30 31 0
-83 17 18 33 34 0
-83 17 19 33 35 0
-83 17 20 33 36 0
-83 18 21 34 37 0
-83 18 23 34 39 0
-83 19 22 35 38 0
-83 19 24 35 40 0
-83 20 23 36 39 0
-83 20 24 36 40 0
-83 21 22 37 38 0
-83 21 24 37 40 0
-83 22 23 38 39 0
-83 25 26 33 34 0
-83 25 27 33 35 0
-83 25 28 33 36 0
-83 26 29 34 37 0
-83 26 31 34 39 0
-83 27 30 35 38 0
-83 27 32 35 40 0
-83 28 31 36 39 0
-83 28 32 36 40 0
-83 29 30 37 38 0
-83 29 32 37 40 0
-83 30 31 38 39 0
-83 41 42 49 50 0
-83 41 43 49 51 0
-83 41 44 49 52 0
-83 42 45 50 53 0
-83 42 47 50 55 0
-83 43 46 51 54 0
-83 43 48 51 56 0
-83 44 47 52 55 0
-83 44 48 52 56 0
-83 45 46 53 54 0
-83 45 48 53 56 0
-83 46 47 54 55 0
-59 1 2 3 -4 -5 -6 7 -8 -9 10 11 -12 13 -14 -15 16 -17 -18 -19 20 21 22 23 -24 25 -26 27 28 -29 30 -31 -32 33 -34 -35 36 37 -38 -39 40 -41 42 -43 44 -45 -46 47 48 -49 -50 51 -52 -53 54 55 56 0
-59 -1 2 -3 4 -5 -6 7 8 -9 10 11 -12 13 -14 -15 16 17 -18 19 20 -21 22 -23 -24 -25 -26 -27 28 29 30 31 -32 33 34 -35 -36 37 38 -39 -40 41 42 43 -44 -45 -46 47 -48 -49 -50 51 -52 -53 54 55 56 0
-59 1 2 3 -4 -5 -6 -7 8 -9 10 11 -12 -13 14 15 -16 -17 -18 -19 20 21 22 -23 24 25 26 -27 28 29 -30 -31 -32 33 -34 -35 36 -37 38 39 -40 -41 -42 43 44 -45 -46 47 48 -49 50 -51 -52 53 -54 55 56 0
-59 -1 -2 3 4 -5 -6 7 8 -9 10 11 -12 -13 14 15 -16 17 18 -19 20 21 -22 -23 -24 -25 -26 -27 28 29 30 -31 32 33 -34 35 -36 37 38 -39 -40 41 42 43 -44 -45 -46 -47 48 -49 50 -51 -52 53 -54 55 56 0
-59 -1 2 3 -4 -5 6 7 -8 9 10 11 -12 -13 -14 -15 16 -17 -18 -19 20 21 22 -23 24 25 -26 -27 28 -29 30 31 -32 33 34 -35 36 37 -38 -39 -40 -41 42 -43 -44 45 -46 47 48 -49 -50 51 52 -53 -54 55 56 0
-59 -1 2 -3 -4 5 -6 7 8 9 10 11 -12 -13 -14 -15 16 17 -18 -19 20 -21 22 23 -24 -25 -26 -27 28 29 30 -31 32 33 -34 35 -36 37 38 -39 -40 -41 42 43 -44 -45 46 47 -48 -49 -50 51 52 -53 -54 55 56 0
-59 -1 2 3 -4 5 -6 -7 8 9 10 11 -12 -13 -14 15 -16 -17 -18 -19 20 21 22 23 -24 25 -26 -27 28 29 -30 -31 32 33 -34 35 36 -37 38 -39 -40 -41 -42 43 -44 -45 46 47 48 -49 50 -51 52 -53 -54 55 56 0
-59 -1 -2 3 -4 -5 6 7 8 9 10 11 -12 -13 -14 15 -16 17 -18 -19 20 21 -22 -23 24 -25 -26 -27 28 29 30 31 -32 33 34 -35 -36 37 38 -39 -40 -41 42 43 -44 45 -46 -47 48 -49 50 -51 52 -53 -54 55 56 0
-59 1 2 -3 4 5 -6 -7 -8 9 -10 11 -12 13 14 -15 -16 -17 -18 19 20 -21 -22 23 24 -25 26 -27 -28 29 -30 31 32 -33 34 35 -36 -37 38 39 -40 41 -42 -43 44 -45 46 47 -48 -49 -50 -51 52 53 54 -55 56 0
-59 1 -2 -3 4 -5 6 7 -8 9 -10 11 -12 13 14 -15 -16 -17 18 -19 -20 21 -22 23 24 -25 -26 27 28 -29 -30 31 32 33 34 35 -36 -37 -38 -39 40 41 42 -43 44 45 -46 -47 -48 -49 -50 -51 52 53 54 -55 56 0
-59 1 2 -3 -4 5 6 -7 -8 9 -10 11 12 -13 14 -15 -16 -17 18 -19 20 -21 -22 23 24 -25 26 27 -28 29 -30 -31 32 -33 -34 35 -36 -37 38 39 40 -41 -42 -43 44 45 46 47 -48 49 -50 -51 52 53 -54 -55 56 0
-59 -1 -2 -3 4 5 6 7 -8 9 -10 11 12 -13 14 -15 -16 -17 18 19 -20 21 -22 -23 24 -25 26 -27 28 -29 -30 31 32 33 34 35 -36 -37 -38 39 -40 41 42 -43 -44 45 46 -47 -48 49 -50 -51 52 53 -54 -55 56 0
-59 1 2 3 -4 -5 -6 7 -8 -9 -10 11 -12 -13 14 15 16 17 -18 -19 20 21 -22 -23 24 25 26 -27 -28 29 30 -31 -32 -33 -34 -35 36 37 38 39 -40 -41 42 -43 44 -45 -46 47 48 -49 50 51 -52 53 -54 -55 56 0
-59 -1 2 -3 4 -5 -6 7 8 -9 -10 11 -12 -13 14 15 16 17 18 -19 -20 21 22 -23 -24 25 -26 -27 28 29 -30 -31 32 33 -34 35 36 -37 38 -39 -40 41 42 43 -44 -45 -46 47 -48 -49 50 51 -52 53 -54 -55 56 0
-59 -1 2 3 -4 -5 6 7 -8 -9 -10 11 12 -13 -14 15 16 17 18 -19 20 21 -22 -23 -24 25 -26 27 -28 29 30 -31 -32 -33 -34 -35 36 37 38 -39 40 -41 42 -43 -44 45 -46 47 48 49 50 51 -52 -53 -54 -55 56 0
-59 -1 2 -3 -4 5 -6 7 8 -9 -10 11 12 -13 -14 15 16 17 -18 19 -20 21 22 -23 -24 25 26 -27 28 29 -30 -31 -32 33 -34 -35 36 -37 38 39 -40 -41 42 43 -44 -45 46 47 -48 49 50 51 -52 -53 -54 -55 56 0
-59 1 -2 3 4 -5 6 -7 -8 9 10 -11 -12 13 14 -15 -16 -17 18 -19 20 -21 -22 23 24 -25 -26 27 -28 -29 30 31 32 -33 34 35 -36 37 -38 -39 40 41 -42 -43 44 45 -46 -47 48 -49 -50 -51 52 53 54 55 -56 0
-59 1 -2 -3 4 5 -6 -7 8 9 10 -11 -12 13 14 -15 -16 -17 -18 19 -20 -21 22 23 24 -25 26 -27 28 -29 -30 31 32 33 34 35 -36 -37 -38 39 -40 41 -42 43 44 -45 46 -47 -48 -49 -50 -51 52 53 54 55 -56 0
-59 1 -2 3 -4 5 6 -7 -8 9 10 -11 12 13 -14 -15 -16 -17 -18 19 20 -21 -22 23 24 -25 26 27 -28 -29 30 31 -32 -33 34 -35 -36 37 -38 39 40 -41 -42 -43 44 45 46 -47 48 49 -50 -51 52 -53 54 55 -56 0
-59 -1 -2 -3 4 5 6 -7 8 9 10 -11 12 13 -14 -15 -16 -17 18 19 -20 -21 22 23 -24 -25 -26 27 28 -29 -30 31 32 33 34 35 -36 -37 -38 -39 40 41 -42 43 -44 45 46 -47 -48 49 -50 -51 52 -53 54 55 -56 0
-59 1 2 3 -4 -5 -6 -7 8 -9 10 -11 -12 13 -14 15 16 17 -18 -19 20 -21 22 23 -24 25 -26 27 -28 29 30 -31 -32 -33 -34 -35 36 37 38 -39 40 -41 -42 43 44 -45 -46 47 48 -49 50 51 -52 -53 54 55 -56 0
-59 -1 -2 3 4 -5 -6 7 8 -9 10 -11 -12 13 -14 15 16 17 -18 19 -20 21 22 -23 -24 25 -26 -27 28 -29 30 31 -32 33 34 -35 36 37 -38 -39 -40 41 42 43 -44 -45 -46 -47 48 -49 50 51 -52 -53 54 55 -56 0
-59 -1 2 3 -4 5 -6 -7 8 -9 10 -11 12 -13 -14 15 16 17 -18 19 20 -21 22 -23 -24 25 26 -27 -28 29 30 -31 -32 -33 -34 -35 36 37 38 39 -40 -41 -42 43 -44 -45 46 47 48 49 50 51 -52 -53 -54 55 -56 0
-59 -1 -2 3 -4 -5 6 7 8 -9 10 -11 12 -13 -14 15 16 17 18 -19 -20 21 22 -23 -24 25 -26 27 28 -29 30 -31 -32 33 -34 -35 36 37 -38 -39 40 -41 42 43 -44 45 -46 -47 48 49 50 51 -52 -53 -54 55 -56 0
-59 1 2 -3 4 5 -6 -7 -8 -9 -10 -11 12 13 14 -15 16 -17 18 19 -20 -21 22 23 -24 25 26 27 -28 -29 -30 -31 32 -33 -34 35 36 -37 -38 39 40 41 -42 -43 44 -45 46 47 -48 49 -50 51 -52 53 54 -55 -56 0
-59 1 -2 -3 4 -5 6 7 -8 -9 -10 -11 12 13 14 -15 16 17 18 19 -20 -21 -22 -23 24 -25 26 27 -28 -29 30 31 -32 -33 34 -35 -36 37 -38 39 40 41 42 -43 44 45 -46 -47 -48 49 -50 51 -52 53 54 -55 -56 0
-59 1 -2 3 4 -5 6 -7 -8 -9 -10 -11 12 13 14 15 -16 -17 18 19 -20 21 -22 -23 24 25 26 27 -28 -29 -30 31 -32 -33 34 -35 36 -37 -38 39 40 41 -42 -43 44 45 -46 -47 48 49 50 -51 -52 53 54 -55 -56 0
-59 1 -2 -3 4 5 -6 -7 8 -9 -10 -11 12 13 14 15 -16 17 18 19 -20 -21 -22 23 -24 -25 26 27 -28 29 -30 -31 32 -33 -34 35 -36 -37 38 39 40 41 -42 43 44 -45 46 -47 -48 49 50 -51 -52 53 54 -55 -56 0
-59 1 2 -3 -4 5 6 -7 -8 9 -10 -11 12 13 -14 -15 16 -17 -18 19 -20 -21 22 23 24 25 26 27 -28 -29 -30 31 -32 -33 34 -35 36 -37 -38 39 40 -41 -42 -43 44 45 46 47 -48 49 -50 51 52 -53 54 -55 -56 0
-59 -1 -2 -3 4 5 6 7 -8 9 -10 -11 12 13 -14 -15 16 17 18 19 -20 -21 -22 23 -24 -25 -26 27 -28 -29 30 31 32 -33 34 35 -36 37 -38 -39 40 41 42 -43 -44 45 46 -47 -48 49 -50 51 52 -53 54 -55 -56 0
-59 1 -2 3 -4 5 6 -7 -8 9 -10 -11 12 -13 14 15 -16 -17 18 -19 -20 21 -22 23 24 25 26 27 -28 -29 -30 -31 32 -33 -34 35 36 -37 -38 39 40 -41 -42 -43 44 45 46 -47 48 49 50 -51 52 53 -54 -55 -56 0
-59 -1 -2 -3 4 5 6 -7 8 9 -10 -11 12 -13 14 15 -16 17 18 19 -20 -21 -22 -23 24 -25 26 -27 -28 29 -30 31 32 -33 34 35 -36 -37 38 39 -40 41 -42 43 -44 45 46 -47 -48 49 50 -51 52 53 -54 -55 -56 0
-81 1 2 3 4 -5 -6 -7 -8 9 10 -11 -12 13 14 -15 -16 17 18 -19 -20 -21 -22 23 24 25 -26 27 -28 29 30 31 -32 -33 34 -35 36 -37 38 -39 40 -41 42 43 -44 45 -46 47 -48 49 -50 -51 52 -53 54 55 56 0
-81 1 2 3 4 -5 -6 -7 -8 9 10 -11 -12 13 14 -15 -16 17 18 -19 -20 -21 -22 23 24 -25 26 -27 28 -29 30 -31 32 33 -34 35 -36 37 38 39 -40 -41 42 43 -44 45 -46 47 -48 49 -50 -51 52 -53 54 55 56 0
-81 1 2 3 4 -5 -6 -7 -8 9 10 -11 -12 13 14 -15 -16 17 18 -19 -20 -21 -22 23 24 25 -26 27 -28 29 -30 31 -32 -33 34 -35 36 37 38 -39 40 41 -42 -43 44 -45 46 -47 48 -49 50 51 -52 53 -54 55 56 0
-81 1 2 3 4 -5 -6 -7 -8 9 10 -11 -12 13 14 -15 -16 17 18 -19 -20 -21 -22 23 24 -25 26 -27 28 29 30 -31 32 33 -34 35 -36 37 -38 39 -40 41 -42 -43 44 -45 46 -47 48 -49 50 51 -52 53 -54 55 56 0
-81 1 2 3 4 -5 -6 -7 -8 9 10 -11 12 13 14 -15 -16 17 18 19 -20 -21 -22 23 24 25 -26 27 -28 29 30 -31 -32 -33 34 -35 36 -37 38 -39 40 -41 42 43 -44 45 -46 47 -48 49 -50 -51 52 -53 -54 55 56 0
-81 1 2 3 4 -5 -6 -7 -8 9 10 -11 12 13 14 -15 -16 17 18 19 -20 -21 -22 23 24 -25 26 -27 28 -29 30 -31 32 33 -34 35 -36 37 38 -39 -40 -41 42 43 -44 45 -46 47 -48 49 -50 -51 52 -53 -54 55 56 0
-81 1 2 3 4 -5 -6 -7 -8 9 10 11 -12 13 14 -15 -16 17 18 -19 20 -21 -22 23 24 -25 26 -27 28 29 30 -31 -32 33 -34 35 -36 37 -38 39 -40 41 -42 -43 44 -45 46 -47 48 -49 50 51 -52 -53 -54 55 56 0
-81 1 2 3 4 -5 -6 -7 -8 9 10 11 -12 13 14 -15 -16 17 18 -19 20 -21 -22 23 24 25 -26 27 -28 29 -30 31 -32 -33 34 -35 36 37 38 -39 -40 41 -42 -43 44 -45 46 -47 48 -49 50 51 -52 -53 -54 55 56 0
-81 1 2 3 4 -5 -6 -7 -8 9 10 -11 -12 -13 -14 15 16 17 18 -19 -20 21 22 -23 -24 25 -26 -27 28 -29 30 -31 32 -33 34 35 -36 37 -38 39 40 41 -42 43 -44 45 -46 47 -48 -49 50 -51 52 53 54 -55 56 0
-81 1 2 3 4 -5 -6 -7 -8 9 10 -11 -12 -13 -14 15 16 17 18 -19 -20 21 22 -23 -24 -25 26 27 -28 29 -30 31 32 33 -34 -35 36 -37 38 -39 40 41 -42 43 -44 45 -46 47 -48 -49 50 -51 52 53 54 -55 56 0
-81 1 2 3 4 -5 -6 -7 -8 9 10 -11 -12 -13 -14 15 16 17 18 -19 -20 21 22 -23 -24 -25 26 27 -28 29 -30 31 -32 33 -34 -35 36 -37 38 39 40 41 -42 43 -44 45 46 47 -48 -49 50 -51 52 -53 54 -55 56 0
-81 1 2 3 4 -5 -6 -7 -8 9 10 -11 -12 -13 -14 15 16 17 18 -19 -20 21 22 -23 -24 25 -26 -27 28 -29 30 31 32 -33 34 35 -36 37 -38 39 -40 41 -42 43 -44 45 46 47 -48 -49 50 -51 52 -53 54 -55 56 0
-81 1 2 3 4 -5 -6 -7 -8 9 10 11 -12 -13 -14 15 16 17 18 -19 20 21 22 -23 -24 -25 26 27 -28 29 -30 31 -32 33 -34 -35 36 -37 -38 39 40 41 -42 43 -44 45 46 -47 -48 -49 50 -51 52 -53 54 -55 56 0
-81 1 2 3 4 -5 -6 -7 -8 9 10 11 -12 -13 -14 15 16 17 18 -19 20 21 22 -23 -24 25 -26 -27 28 -29 -30 31 32 -33 34 35 -36 37 -38 39 -40 41 -42 43 -44 45 46 -47 -48 -49 50 -51 52 -53 54 -55 56 0
-81 1 2 3 4 -5 -6 -7 -8 9 10 -11 -12 13 14 -15 -16 17 18 -19 -20 -21 -22 23 24 25 -26 27 -28 29 -30 31 -32 -33 34 -35 36 37 38 -39 40 -41 42 43 -44 45 -46 47 48 49 -50 -51 52 -53 54 -55 56 0
-81 1 2 3 4 -5 -6 -7 -8 9 10 -11 -12 13 14 -15 -16 17 18 -19 -20 -21 -22 23 24 -25 26 -27 28 29 30 -31 32 33 -34 35 -36 37 -38 39 -40 -41 42 43 -44 45 -46 47 48 49 -50 -51 52 -53 54 -55 56 0
-81 1 2 3 4 -5 -6 -7 -8 9 10 11 -12 13 14 -15 -16 17 18 -19 20 -21 -22 23 24 -25 26 -27 28 29 30 -31 -32 33 -34 35 -36 37 -38 39 -40 -41 42 43 -44 -45 -46 47 48 49 -50 -51 52 -53 54 -55 56 0
-81 1 2 3 4 -5 -6 -7 -8 9 10 11 -12 13 14 -15 -16 17 18 -19 20 -21 -22 23 24 25 -26 27 -28 29 -30 31 -32 -33 34 -35 36 37 38 -39 -40 -41 42 43 -44 -45 -46 47 48 49 -50 -51 52 -53 54 -55 56 0
-81 1 2 3 4 -5 -6 -7 -8 9 10 -11 -12 -13 -14 15 16 17 18 -19 -20 21 22 -23 -24 -25 26 27 -28 29 -30 31 -32 33 -34 -35 36 -37 38 39 40 -41 42 -43 44 -45 46 -47 48 49 -50 51 -52 53 54 55 -56 0
-81 1 2 3 4 -5 -6 -7 -8 9 10 -11 -12 -13 -14 15 16 17 18 -19 -20 21 22 -23 -24 25 -26 -27 28 -29 30 31 32 -33 34 35 -36 37 -38 39 -40 -41 42 -43 44 -45 46 -47 48 49 -50 51 -52 53 54 55 -56 0
-81 1 2 3 4 -5 -6 -7 -8 9 10 -11 -12 13 14 -15 -16 17 18 -19 -20 -21 -22 23 24 25 -26 27 -28 29 30 31 -32 -33 34 -35 36 -37 38 -39 40 41 -42 -43 44 -45 46 47 48 -49 50 51 -52 53 -54 55 -56 0
-81 1 2 3 4 -5 -6 -7 -8 9 10 -11 -12 13 14 -15 -16 17 18 -19 -20 -21 -22 23 24 -25 26 -27 28 -29 30 -31 32 33 -34 35 -36 37 38 39 -40 41 -42 -43 44 -45 46 47 48 -49 50 51 -52 53 -54 55 -56 0
-81 1 2 3 4 -5 -6 -7 -8 9 10 -11 12 13 14 -15 -16 17 18 19 -20 -21 -22 23 24 25 -26 27 -28 29 30 -31 -32 -33 34 -35 36 -37 38 -39 40 41 -42 -43 44 -45 -46 47 48 -49 50 51 -52 53 -54 55 -56 0
-81 1 2 3 4 -5 -6 -7 -8 9 10 -11 12 13 14 -15 -16 17 18 19 -20 -21 -22 23 24 -25 26 -27 28 -29 30 -31 32 33 -34 35 -36 37 38 -39 -40 41 -42 -43 44 -45 -46 47 48 -49 50 51 -52 53 -54 55 -56 0
-81 1 2 3 4 -5 -6 -7 -8 9 10 -11 -12 -13 -14 15 16 17 18 -19 -20 21 22 -23 -24 25 -26 -27 28 -29 30 -31 32 -33 34 35 -36 37 -38 39 40 -41 42 -43 44 45 46 -47 48 49 -50 51 -52 53 -54 55 -56 0
-81 1 2 3 4 -5 -6 -7 -8 9 10 -11 -12 -13 -14 15 16 17 18 -19 -20 21 22 -23 -24 -25 26 27 -28 29 -30 31 32 33 -34 -35 36 -37 38 -39 40 -41 42 -43 44 45 46 -47 48 49 -50 51 -52 53 -54 55 -56 0
-81 1 2 3 4 -5 -6 -7 -8 9 10 -11 12 -13 -14 15 16 17 18 19 -20 21 22 -23 -24 25 -26 -27 28 -29 30 -31 32 -33 34 35 -36 -37 -38 39 40 -41 42 -43 44 45 46 -47 -48 49 -50 51 -52 53 -54 55 -56 0
-81 1 2 3 4 -5 -6 -7 -8 9 10 -11 12 -13 -14 15 16 17 18 19 -20 21 22 -23 -24 -25 26 27 -28 -29 -30 31 32 33 -34 -35 36 -37 38 -39 40 -41 42 -43 44 45 46 -47 -48 49 -50 51 -52 53 -54 55 -56 0
-81 1 2 3 4 -5 -6 -7 -8 9 10 -11 12 -13 -14 15 16 17 18 19 -20 21 22 -23 -24 25 -26 -27 28 -29 30 -31 32 -33 34 35 -36 -37 -38 39 40 41 -42 43 -44 45 -46 47 -48 -49 50 -51 52 53 54 -55 -56 0
-81 1 2 3 4 -5 -6 -7 -8 9 10 -11 12 -13 -14 15 16 17 18 19 -20 21 22 -23 -24 -25 26 27 -28 -29 -30 31 32 33 -34 -35 36 -37 38 -39 40 41 -42 43 -44 45 -46 47 -48 -49 50 -51 52 53 54 -55 -56 0
-81 1 2 3 4 -5 -6 -7 -8 9 10 11 -12 -13 -14 15 16 17 18 -19 20 21 22 -23 -24 -25 26 27 -28 29 -30 31 -32 33 -34 -35 36 -37 -38 39 40 -41 42 -43 44 -45 46 -47 48 49 -50 51 -52 53 54 -55 -56 0
-81 1 2 3 4 -5 -6 -7 -8 9 10 11 -12 -13 -14 15 16 17 18 -19 20 21 22 -23 -24 25 -26 -27 28 -29 -30 31 32 -33 34 35 -36 37 -38 39 -40 -41 42 -43 44 -45 46 -47 48 49 -50 51 -52 53 54 -55 -56 0
