p cnf 66 6152
12 15 18 24 27 48 0
12 16 17 25 26 52 0
-12 -19 -20 -28 -29 -64 0
-12 -19 -21 -28 -30 -65 0
-12 -20 -21 -29 -30 -66 0
13 14 15 31 32 39 0
13 14 16 31 33 40 0
13 14 17 31 34 41 0
13 14 18 31 35 42 0
13 15 16 32 33 46 0
13 15 17 32 34 47 0
13 15 18 32 35 48 0
13 16 17 33 34 52 0
13 16 18 33 35 53 0
13 17 18 34 35 57 0
-13 -19 -20 -36 -37 -64 0
-13 -19 -21 -36 -38 -65 0
-13 -20 -21 -37 -38 -66 0
14 15 16 39 40 46 0
14 15 17 39 41 47 0
14 15 18 39 42 48 0
14 16 17 40 41 52 0
14 16 18 40 42 53 0
14 16 21 40 45 56 0
14 17 18 41 42 57 0
14 17 21 41 45 60 0
-14 -19 -20 -43 -44 -64 0
-14 -19 -21 -43 -45 -65 0
-14 -20 -21 -44 -45 -66 0
15 16 17 46 47 52 0
15 16 18 46 48 53 0
15 16 19 46 49 54 0
15 16 20 46 50 55 0
15 16 21 46 51 56 0
15 17 18 47 48 57 0
15 17 19 47 49 58 0
15 17 20 47 50 59 0
15 17 21 47 51 60 0
15 18 19 48 49 61 0
15 18 21 48 51 63 0
16 17 18 52 53 57 0
16 17 19 52 54 58 0
16 17 20 52 55 59 0
16 17 21 52 56 60 0
16 18 19 53 54 61 0
16 18 20 53 55 62 0
16 18 21 53 56 63 0
17 18 19 57 58 61 0
17 18 20 57 59 62 0
17 18 21 57 60 63 0
22 23 24 31 32 39 0
22 23 25 31 33 40 0
22 23 26 31 34 41 0
22 23 27 31 35 42 0
22 23 28 31 36 43 0
22 23 29 31 37 44 0
22 23 30 31 38 45 0
22 24 25 32 33 46 0
22 24 26 32 34 47 0
22 24 27 32 35 48 0
22 24 28 32 36 49 0
22 24 29 32 37 50 0
22 24 30 32 38 51 0
22 25 26 33 34 52 0
22 25 27 33 35 53 0
22 25 28 33 36 54 0
22 25 29 33 37 55 0
22 25 30 33 38 56 0
22 26 27 34 35 57 0
22 26 28 34 36 58 0
22 26 30 34 38 60 0
22 27 28 35 36 61 0
22 27 30 35 38 63 0
23 24 25 39 40 46 0
23 24 26 39 41 47 0
23 24 27 39 42 48 0
23 24 28 39 43 49 0
23 24 30 39 45 51 0
23 25 26 40 41 52 0
23 25 27 40 42 53 0
23 25 28 40 43 54 0
23 25 29 40 44 55 0
23 25 30 40 45 56 0
23 26 27 41 42 57 0
23 26 28 41 43 58 0
23 26 29 41 44 59 0
23 26 30 41 45 60 0
23 27 28 42 43 61 0
23 27 30 42 45 63 0
24 25 30 46 51 56 0
24 26 28 47 49 58 0
24 26 30 47 51 60 0
24 27 28 48 49 61 0
24 27 30 48 51 63 0
-24 -28 -30 -49 -51 -65 0
-24 -29 -30 -50 -51 -66 0
-25 -26 -28 -52 -54 -58 0
25 26 28 52 54 58 0
25 26 29 52 55 59 0
-25 -26 -30 -52 -56 -60 0
25 26 30 52 56 60 0
25 27 28 53 54 61 0
25 27 30 53 56 63 0
-25 -28 -29 -54 -55 -64 0
-25 -28 -30 -54 -56 -65 0
26 27 28 57 58 61 0
26 27 30 57 60 63 0
-26 -28 -29 -58 -59 -64 0
-26 -28 -30 -58 -60 -65 0
-26 -29 -30 -59 -60 -66 0
-27 -28 -30 -61 -63 -65 0
-27 -29 -30 -62 -63 -66 0
31 32 33 39 40 46 0
31 32 34 39 41 47 0
31 32 35 39 42 48 0
31 32 36 39 43 49 0
31 32 38 39 45 51 0
31 33 34 40 41 52 0
31 33 35 40 42 53 0
31 33 36 40 43 54 0
31 33 38 40 45 56 0
31 34 35 41 42 57 0
31 34 36 41 43 58 0
31 34 37 41 44 59 0
31 34 38 41 45 60 0
31 35 36 42 43 61 0
31 35 37 42 44 62 0
31 35 38 42 45 63 0
32 33 36 46 49 54 0
-32 -33 -38 -46 -51 -56 0
32 33 38 46 51 56 0
32 34 35 47 48 57 0
-32 -34 -36 -47 -49 -58 0
32 34 36 47 49 58 0
32 34 38 47 51 60 0
-32 -35 -36 -48 -49 -61 0
32 35 36 48 49 61 0
32 35 37 48 50 62 0
32 35 38 48 51 63 0
33 34 35 52 53 57 0
33 34 36 52 54 58 0
33 34 38 52 56 60 0
33 35 36 53 54 61 0
33 35 38 53 56 63 0
-33 -36 -38 -54 -56 -65 0
-33 -37 -38 -55 -56 -66 0
34 35 36 57 58 61 0
34 35 37 57 59 62 0
34 35 38 57 60 63 0
39 40 43 46 49 54 0
39 40 44 46 50 55 0
39 40 45 46 51 56 0
39 41 43 47 49 58 0
39 41 45 47 51 60 0
39 42 43 48 49 61 0
39 42 44 48 50 62 0
39 42 45 48 51 63 0
-39 -43 -45 -49 -51 -65 0
-39 -44 -45 -50 -51 -66 0
40 41 43 52 54 58 0
40 41 45 52 56 60 0
40 42 43 53 54 61 0
40 42 44 53 55 62 0
40 42 45 53 56 63 0
-40 -43 -44 -54 -55 -64 0
-40 -43 -45 -54 -56 -65 0
-40 -44 -45 -55 -56 -66 0
-41 -42 -43 -57 -58 -61 0
41 42 43 57 58 61 0
41 42 45 57 60 63 0
-41 -43 -44 -58 -59 -64 0
-41 -43 -45 -58 -60 -65 0
-41 -44 -45 -59 -60 -66 0
-42 -43 -45 -61 -63 -65 0
-46 -49 -50 -54 -55 -64 0
-46 -49 -51 -54 -56 -65 0
-48 -49 -50 -61 -62 -64 0
-52 -53 -54 -57 -58 -61 0
-52 -54 -56 -58 -60 -65 0
-53 -54 -56 -61 -63 -65 0
-57 -58 -59 -61 -62 -64 0
-57 -58 -60 -61 -63 -65 0
-12 -13 -22 0
-12 -14 -23 0
-13 -14 -31 0
-22 -23 -31 0
-22 -24 -32 0
-22 -25 -33 0
-22 -26 -34 0
-22 -27 -35 0
-23 -24 -39 0
-23 -25 -40 0
-23 -26 -41 0
-23 -27 -42 0
-24 -25 -46 0
-24 -26 -47 0
-24 -27 -48 0
-25 -26 -52 0
-25 -27 -53 0
-26 -27 -57 0
-31 -32 -39 0
-31 -33 -40 0
-31 -34 -41 0
-31 -35 -42 0
-32 -33 -46 0
-32 -34 -47 0
-32 -35 -48 0
-33 -34 -52 0
-33 -35 -53 0
-34 -35 -57 0
-39 -40 -46 0
-39 -41 -47 0
-39 -42 -48 0
-40 -41 -52 0
-40 -42 -53 0
-41 -42 -57 0
-46 -47 -52 0
-46 -48 -53 0
-47 -48 -57 0
-52 -53 -57 0
64 65 66 0
13 -22 14 23 15 24 39 16 25 33 40 17 -26 34 47 0
-13 22 -14 23 31 15 24 16 25 40 46 17 26 34 47 0
13 -22 14 -23 31 15 24 16 25 40 46 17 26 34 47 0
-12 22 23 31 15 32 39 16 -25 40 46 17 26 34 47 0
-12 22 23 31 15 32 39 16 25 40 46 17 -26 34 47 0
-12 22 -14 23 31 15 32 16 33 40 46 17 26 34 47 0
-13 22 23 31 15 24 39 16 -33 40 46 17 26 34 47 0
-13 22 23 31 15 24 39 16 33 40 46 17 26 -34 47 0
-13 22 -14 23 31 15 24 16 25 33 46 17 26 41 47 0
-12 22 23 31 15 32 39 16 -25 33 46 17 26 41 47 0
-12 22 23 31 15 32 39 16 25 33 46 17 -26 41 47 0
22 -14 23 31 15 24 32 16 33 -40 46 17 26 41 47 0
22 -14 23 31 15 24 32 16 33 40 46 17 26 -41 47 0
-12 -13 22 23 31 15 39 16 33 40 46 17 26 41 47 0
-12 22 -14 23 31 15 32 16 25 33 46 17 34 41 47 0
-13 22 23 31 15 24 39 16 25 -33 46 17 34 41 47 0
-13 22 23 31 15 24 39 16 25 33 46 17 -34 41 47 0
22 -14 23 31 15 24 32 16 25 -40 46 17 34 41 47 0
22 -14 23 31 15 24 32 16 25 40 46 17 34 -41 47 0
22 14 23 -31 15 24 32 16 25 40 46 17 34 -41 47 0
-12 -13 22 23 31 15 39 16 25 40 46 17 34 41 47 0
22 14 31 15 24 16 25 -33 -40 46 17 26 34 41 47 0
22 14 23 15 32 16 -25 33 -40 46 17 26 34 41 47 0
22 14 23 15 32 16 25 -33 40 -46 17 26 34 41 47 0
-13 22 -14 23 31 15 24 39 16 25 46 17 26 34 52 0
13 -22 14 -23 31 15 24 39 16 25 46 17 26 34 52 0
13 -22 14 23 31 15 24 39 16 25 46 17 -26 34 52 0
-12 22 -14 23 31 15 32 39 16 33 46 17 26 34 52 0
-13 22 23 31 15 -32 39 16 25 40 46 17 26 34 52 0
-13 22 23 31 15 32 39 16 25 40 46 17 26 -34 52 0
-12 22 23 31 15 24 39 16 33 40 46 17 -26 34 52 0
-13 22 -14 23 31 15 24 32 16 25 46 17 26 41 52 0
22 14 23 -31 15 32 -39 16 25 33 46 17 26 41 52 0
22 -14 23 31 15 32 39 16 25 33 46 17 26 -41 52 0
-12 -13 22 23 31 15 32 39 16 40 46 17 26 41 52 0
22 -14 23 31 15 24 -39 16 25 33 46 17 34 41 52 0
22 -14 23 31 15 24 39 16 25 33 46 17 34 -41 52 0
22 14 23 -31 15 24 39 16 25 33 46 17 34 -41 52 0
-12 -13 22 23 31 15 24 39 16 40 46 17 34 41 52 0
-13 22 23 31 15 24 -32 16 25 40 46 17 34 41 52 0
-13 22 23 31 15 24 32 16 25 40 46 17 -34 41 52 0
22 14 31 15 24 32 39 16 25 46 17 26 -34 -41 52 0
13 23 31 15 24 32 39 16 25 46 17 26 -34 -41 52 0
-13 22 -14 23 31 15 24 39 16 25 33 17 26 47 52 0
-13 22 -14 23 31 15 24 32 16 25 40 17 26 47 52 0
22 14 31 15 24 32 39 16 25 -33 -40 17 26 47 52 0
-12 22 -14 23 31 15 32 39 16 25 33 17 34 47 52 0
-12 22 -14 23 31 15 24 32 16 33 40 17 34 47 52 0
22 14 23 15 24 32 39 16 25 -33 40 17 34 47 -52 0
22 -14 23 31 15 32 -39 16 25 40 17 26 34 47 52 0
22 -14 23 31 15 32 39 16 25 -40 17 26 34 47 52 0
22 14 -23 31 15 32 39 16 25 -40 17 26 34 47 52 0
22 14 23 31 15 32 39 16 25 40 17 26 -34 -47 52 0
22 -14 23 31 15 24 -39 16 33 40 17 26 34 47 52 0
22 -14 23 31 15 24 39 16 33 -40 17 26 34 47 52 0
22 14 23 31 15 24 39 16 33 40 17 -26 34 -47 52 0
22 14 23 31 15 24 39 16 33 40 17 26 -34 47 -52 0
-12 -13 22 23 31 15 32 39 16 25 40 17 41 47 52 0
-12 -13 22 23 31 15 24 39 16 33 40 17 41 47 52 0
-13 22 23 31 15 32 39 16 25 -33 17 26 41 47 52 0
-13 22 23 31 15 24 -32 16 33 40 17 26 41 47 52 0
-13 22 23 31 15 24 32 16 -33 40 17 26 41 47 52 0
-12 22 23 31 15 -24 39 16 25 33 17 34 41 47 52 0
-12 22 23 31 15 32 39 16 -25 40 46 18 27 35 48 0
-12 22 23 31 15 32 39 16 25 40 46 18 -27 35 48 0
-13 22 23 31 15 24 39 16 -33 40 46 18 27 35 48 0
-13 22 23 31 15 24 39 16 33 40 46 18 27 -35 48 0
-13 22 -14 23 31 15 24 16 25 33 46 18 27 42 48 0
-12 22 23 31 15 32 39 16 -25 33 46 18 27 42 48 0
22 -14 23 31 15 24 32 16 33 -40 46 18 27 42 48 0
22 14 23 31 15 24 -32 16 33 40 -46 18 27 42 48 0
22 -14 23 31 15 24 32 16 33 40 46 18 27 -42 48 0
22 14 -23 31 15 24 32 16 33 40 46 18 27 -42 48 0
-12 -13 22 23 31 15 39 16 33 40 46 18 27 42 48 0
-12 22 -14 23 31 15 32 16 25 33 46 18 35 42 48 0
-13 22 23 31 15 24 39 16 25 -33 46 18 35 42 48 0
22 -14 23 31 15 24 32 16 25 -40 46 18 35 42 48 0
22 14 -23 31 15 24 32 16 25 -40 46 18 35 42 48 0
22 14 23 31 15 24 -32 16 25 40 46 18 35 42 -48 0
-12 -13 22 23 31 15 39 16 25 40 46 18 35 42 48 0
22 14 23 15 32 16 -25 33 -40 46 18 27 35 42 48 0
22 14 23 15 32 16 25 33 40 46 18 -27 35 -42 48 0
22 14 23 15 32 16 25 33 40 46 18 27 -35 42 -48 0
-13 22 -14 23 31 15 24 39 16 25 46 18 27 35 53 0
-13 22 23 31 15 -32 39 16 25 40 46 18 27 35 53 0
-13 22 23 31 15 32 39 16 25 40 46 18 27 -35 53 0
-12 22 23 31 15 -24 39 16 33 40 46 18 27 35 53 0
-12 22 23 31 15 24 39 16 33 40 46 18 -27 35 53 0
22 -14 23 31 15 32 -39 16 25 33 46 18 27 42 53 0
22 -14 23 31 15 32 39 16 25 33 46 18 27 -42 53 0
-12 -13 22 23 31 15 32 39 16 40 46 18 27 42 53 0
-12 22 23 31 15 -24 32 16 33 40 46 18 27 42 53 0
-12 22 23 31 15 24 32 16 33 40 46 18 -27 42 53 0
-12 22 -14 23 31 15 24 32 16 33 46 18 35 42 53 0
22 -14 23 31 15 24 39 16 25 33 46 18 35 -42 53 0
22 14 23 31 15 24 39 16 25 -33 46 18 35 42 -53 0
-12 -13 22 23 31 15 24 39 16 40 46 18 35 42 53 0
-13 22 23 31 15 24 -32 16 25 40 46 18 35 42 53 0
22 14 31 15 24 32 39 16 25 46 18 27 -35 -42 53 0
22 14 23 15 24 32 39 16 33 46 18 -27 35 -42 53 0
-13 22 -14 23 31 15 24 39 16 25 33 18 27 48 53 0
-13 22 -14 23 31 15 24 32 16 25 40 18 27 48 53 0
-12 22 -14 23 31 15 32 39 16 25 33 18 35 48 53 0
-12 22 -14 23 31 15 24 32 16 33 40 18 35 48 53 0
22 14 23 15 24 -32 39 16 25 33 40 18 35 -48 53 0
22 14 -23 31 15 32 39 16 25 -40 18 27 35 48 53 0
22 14 23 31 15 32 39 16 25 40 18 27 -35 -48 53 0
22 -14 23 31 15 24 -39 16 33 40 18 27 35 48 53 0
22 14 -23 31 15 24 -39 16 33 40 18 27 35 48 53 0
22 -14 23 31 15 24 39 16 33 -40 18 27 35 48 53 0
-12 -13 22 23 31 15 32 39 16 25 40 18 42 48 53 0
-12 -13 22 23 31 15 24 39 16 33 40 18 42 48 53 0
-13 22 23 31 15 32 39 16 25 -33 18 27 42 48 53 0
-13 22 23 31 15 24 -32 16 33 40 18 27 42 48 53 0
-13 22 23 31 15 24 32 16 -33 40 18 27 42 48 53 0
-12 22 23 31 15 24 39 16 -25 33 18 35 42 48 53 0
-12 22 23 31 15 -24 32 16 25 40 18 35 42 48 53 0
-12 22 23 31 15 24 32 16 -25 40 18 35 42 48 53 0
-12 22 23 31 15 32 39 16 -25 40 46 19 28 36 49 0
-12 22 -14 23 31 15 32 16 33 40 46 19 28 36 49 0
-13 22 23 31 15 24 39 16 -33 40 46 19 28 36 49 0
-13 22 -14 23 31 15 24 16 25 33 46 19 28 43 49 0
22 -14 23 31 15 24 32 16 33 -40 46 19 28 43 49 0
-12 -13 22 23 31 15 39 16 33 40 46 19 28 43 49 0
-12 -13 22 23 31 15 39 16 25 40 46 19 36 43 49 0
-13 22 -14 23 31 15 24 39 16 25 46 19 28 36 54 0
-12 -13 22 23 31 15 32 39 16 40 46 19 28 43 54 0
-12 22 23 31 15 -24 32 16 33 40 46 19 28 43 54 0
22 -14 23 31 15 24 -39 16 25 33 46 19 36 43 54 0
-12 -13 22 23 31 15 24 39 16 40 46 19 36 43 54 0
-12 -13 22 -14 23 15 24 39 25 33 -46 -19 28 -36 49 -54 0
-12 -13 22 -14 31 15 32 39 25 33 -46 -19 -28 36 49 -54 0
-12 -13 22 -14 23 24 39 16 25 33 -46 -19 28 -43 -49 54 0
-12 -13 -14 23 31 24 39 16 33 40 -46 -19 -28 43 -49 54 0
-12 -13 22 -14 31 32 39 16 25 33 -46 -19 36 -43 -49 54 0
-12 -13 -14 23 31 24 39 16 25 -46 -19 -28 -36 43 -49 -54 0
-12 -13 22 -14 23 24 32 16 33 -46 -19 28 -36 -43 -49 -54 0
-12 -13 -14 23 31 32 39 16 33 -46 -19 -28 -36 43 -49 -54 0
-12 -13 22 -14 31 32 39 16 40 -46 -19 -28 36 -43 -49 -54 0
-12 -13 -14 23 31 15 24 25 40 -46 -19 -28 -36 43 -49 -54 0
-12 -13 -14 23 31 15 32 33 40 -46 -19 -28 -36 43 -49 -54 0
-12 -13 22 -14 31 15 39 33 40 -46 -19 -28 36 -43 -49 -54 0
-12 22 -14 23 31 15 32 39 -25 33 46 -19 28 -36 -43 -49 -54 0
-12 22 -14 23 31 32 -39 16 25 33 46 -19 -28 -36 43 -49 -54 0
-13 22 -14 23 31 15 24 32 25 -40 46 -19 -28 -36 43 -49 -54 0
-12 -13 22 23 31 15 32 39 -25 40 46 -19 28 -36 -43 -49 -54 0
-12 22 -14 23 31 15 24 32 33 -40 46 -19 -28 -36 43 -49 -54 0
-12 -13 22 23 31 -24 39 16 33 40 46 -19 28 -36 -43 -49 -54 0
22 -14 23 31 15 24 32 16 25 -40 46 20 37 44 50 0
-13 22 -14 23 31 15 24 32 16 25 46 20 29 44 55 0
-12 -13 22 23 31 15 32 39 16 40 46 20 29 44 55 0
-12 -13 22 23 31 15 32 39 16 25 40 20 44 50 55 0
-12 -13 -14 23 31 15 32 39 25 40 -46 -20 -29 44 50 -55 0
-12 -13 22 -14 31 32 39 16 25 33 -46 -20 37 -44 -50 55 0
-12 -13 -14 23 31 32 39 16 33 -46 -20 -29 -37 44 -50 -55 0
-12 -13 22 -14 23 15 32 25 33 -46 -20 29 -37 -44 -50 -55 0
-13 22 -14 23 31 15 24 32 25 -40 46 -20 -29 -37 44 -50 -55 0
-13 22 23 31 15 24 39 16 -33 40 46 21 30 38 51 0
22 -14 23 31 15 24 32 16 33 -40 46 21 30 45 51 0
-12 -13 22 23 31 15 39 16 33 40 46 21 30 45 51 0
-12 22 -14 23 31 15 32 16 25 33 46 21 38 45 51 0
22 -14 23 31 15 24 32 16 25 -40 46 21 38 45 51 0
-12 -13 22 23 31 15 39 16 25 40 46 21 38 45 51 0
-13 22 -14 23 31 15 24 39 16 25 46 21 30 38 56 0
-13 22 -14 23 31 15 24 32 16 25 46 21 30 45 56 0
22 -14 23 31 15 32 -39 16 25 33 46 21 30 45 56 0
-12 22 23 31 15 -24 32 16 33 40 46 21 30 45 56 0
-12 22 -14 23 31 15 24 32 16 33 46 21 38 45 56 0
22 -14 23 31 15 24 -39 16 25 33 46 21 38 45 56 0
-13 22 -14 23 31 15 24 32 16 25 40 21 30 51 56 0
-12 22 -14 23 31 15 24 32 16 33 40 21 38 51 56 0
-12 -13 22 23 31 15 32 39 16 25 40 21 45 51 56 0
-12 -13 22 -14 23 24 32 16 25 40 -46 -21 30 -38 -51 56 0
-12 -13 22 -14 31 24 32 16 33 40 -46 -21 -30 38 -51 56 0
-12 -13 -14 23 31 15 32 39 25 40 -46 -21 -30 45 51 -56 0
-12 -13 -14 23 31 24 39 16 33 40 -46 -21 -30 45 -51 56 0
-12 -13 -14 23 31 32 39 16 25 40 -46 -21 -38 45 -51 56 0
-12 -13 22 -14 31 15 24 32 33 40 -46 -21 38 -45 51 -56 0
-12 -13 22 -14 31 24 32 16 25 -46 -21 -30 38 -45 -51 -56 0
-12 -13 22 -14 23 24 32 16 33 -46 -21 30 -38 -45 -51 -56 0
-12 -13 22 -14 31 15 24 25 33 -46 -21 -30 38 -45 -51 -56 0
-12 -13 22 -14 23 15 32 25 33 -46 -21 30 -38 -45 -51 -56 0
-12 -13 22 -14 23 24 39 16 40 -46 -21 30 -38 -45 -51 -56 0
-12 -13 -14 23 31 15 24 25 40 -46 -21 -30 -38 45 -51 -56 0
-12 -13 22 -14 23 15 39 25 40 -46 -21 30 -38 -45 -51 -56 0
-12 -13 -14 23 31 15 32 33 40 -46 -21 -30 -38 45 -51 -56 0
-13 22 -14 23 31 15 24 39 25 -33 46 -21 -30 38 -45 -51 -56 0
-12 22 -14 23 31 15 32 39 -25 33 46 -21 30 -38 -45 -51 -56 0
-12 22 -14 31 15 32 -39 16 25 33 46 21 -30 -38 -45 -51 -56 0
-12 22 -14 31 15 32 39 16 -25 33 46 21 -30 -38 -45 -51 -56 0
-13 22 -14 23 15 24 -32 16 25 40 46 21 -30 -38 -45 -51 -56 0
-13 22 -14 23 15 24 32 16 25 -40 46 21 -30 -38 -45 -51 -56 0
-12 22 -14 23 31 15 24 32 33 -40 46 -21 -30 -38 45 -51 -56 0
-12 22 -14 23 31 -24 32 16 33 40 46 -21 30 -38 -45 -51 -56 0
-12 22 -14 31 15 24 32 16 33 -40 46 21 -30 -38 -45 -51 -56 0
-12 -13 23 31 15 -24 39 16 33 40 46 21 -30 -38 -45 -51 -56 0
-12 -13 23 31 15 24 39 16 -33 40 46 21 -30 -38 -45 -51 -56 0
-13 22 -14 23 31 15 24 17 26 41 47 18 27 35 48 0
13 -22 14 -23 31 15 24 17 26 41 47 18 27 35 48 0
-12 22 23 31 15 32 39 17 -26 41 47 18 27 35 48 0
-12 22 23 31 15 32 39 17 26 41 47 18 -27 35 48 0
-12 22 -14 23 31 15 32 17 34 41 47 18 27 35 48 0
-13 22 23 31 15 24 39 17 34 41 47 18 27 -35 48 0
-13 22 -14 23 31 15 24 17 26 34 47 18 27 42 48 0
-12 22 23 31 15 32 39 17 -26 34 47 18 27 42 48 0
22 -14 23 31 15 24 32 17 34 -41 47 18 27 42 48 0
22 -14 23 31 15 24 32 17 34 41 47 18 27 -42 48 0
22 14 23 31 15 -24 32 17 34 41 47 18 27 42 -48 0
-12 -13 22 23 31 15 39 17 34 41 47 18 27 42 48 0
-12 22 -14 23 31 15 32 17 26 34 47 18 35 42 48 0
-13 22 23 31 15 24 39 17 26 34 47 18 -35 42 48 0
22 -14 23 31 15 24 32 17 26 -41 47 18 35 42 48 0
-12 -13 22 23 31 15 39 17 26 41 47 18 35 42 48 0
22 14 31 15 24 17 -26 34 41 -47 18 27 35 42 48 0
22 14 31 15 24 17 26 34 41 47 18 27 -35 -42 48 0
22 14 23 15 32 17 -26 34 -41 47 18 27 35 42 48 0
22 14 23 15 32 17 26 -34 41 -47 18 27 35 42 48 0
22 14 23 15 32 17 26 34 41 47 18 -27 35 -42 48 0
-13 22 -14 23 31 15 24 39 17 26 47 18 27 35 57 0
-12 22 -14 23 31 15 32 39 17 34 47 18 27 35 57 0
-13 22 23 31 15 -32 39 17 26 41 47 18 27 35 57 0
-13 22 23 31 15 32 39 17 26 41 47 18 27 -35 57 0
-12 22 23 31 15 -24 39 17 34 41 47 18 27 35 57 0
-12 22 23 31 15 24 39 17 34 41 47 18 -27 35 57 0
13 -22 14 23 15 -24 32 39 17 26 34 18 27 42 57 0
-13 22 -14 23 31 15 24 32 17 26 47 18 27 42 57 0
22 -14 23 31 15 32 -39 17 26 34 47 18 27 42 57 0
22 -14 23 31 15 32 39 17 26 34 47 18 27 -42 57 0
-12 -13 22 23 31 15 32 39 17 41 47 18 27 42 57 0
-12 22 23 31 15 -24 32 17 34 41 47 18 27 42 57 0
-12 22 -14 23 31 15 24 32 17 34 47 18 35 42 57 0
22 -14 23 31 15 24 -39 17 26 34 47 18 35 42 57 0
22 -14 23 31 15 24 39 17 26 34 47 18 35 -42 57 0
22 14 23 31 15 24 39 17 26 -34 47 18 35 42 -57 0
-12 -13 22 23 31 15 24 39 17 41 47 18 35 42 57 0
-13 22 23 31 15 24 -32 17 26 41 47 18 35 42 57 0
-13 22 23 31 15 24 32 17 26 41 47 18 -35 42 57 0
22 14 31 15 24 -32 -39 17 26 47 18 27 35 42 57 0
-13 22 -14 23 31 15 24 39 17 26 34 18 27 48 57 0
13 -22 14 -23 31 15 24 32 17 26 41 18 27 48 57 0
-12 22 -14 23 31 15 32 39 17 26 34 18 35 48 57 0
-12 22 -14 23 31 15 24 32 17 34 41 18 35 48 57 0
22 -14 23 31 15 32 -39 17 26 41 18 27 35 48 57 0
22 14 23 -31 15 32 -39 17 26 41 18 27 35 48 57 0
22 -14 23 31 15 32 39 17 26 -41 18 27 35 48 57 0
22 14 23 31 15 32 39 17 26 41 18 27 -35 -48 57 0
22 14 23 31 15 32 39 17 26 41 18 -27 35 48 -57 0
22 -14 23 31 15 24 -39 17 34 41 18 27 35 48 57 0
22 14 -23 31 15 24 -39 17 34 41 18 27 35 48 57 0
22 -14 23 31 15 24 39 17 34 -41 18 27 35 48 57 0
22 14 23 -31 15 24 39 17 34 -41 18 27 35 48 57 0
22 14 23 31 15 24 39 17 34 41 18 -27 35 -48 57 0
22 14 23 31 15 24 39 17 34 41 18 27 -35 48 -57 0
-12 -13 22 23 31 15 32 39 17 26 41 18 42 48 57 0
-13 22 23 31 15 32 39 17 26 -34 18 27 42 48 57 0
-12 22 23 31 15 -24 39 17 26 34 18 35 42 48 57 0
-12 22 23 31 15 -24 32 17 26 41 18 35 42 48 57 0
-12 22 -14 23 31 15 32 17 26 34 47 19 36 43 49 0
22 -14 23 31 15 24 32 17 26 -41 47 19 36 43 49 0
-12 22 -14 23 31 15 32 39 17 34 47 19 28 36 58 0
-13 22 -14 23 31 15 24 32 17 26 47 19 28 43 58 0
22 -14 23 31 15 32 -39 17 26 34 47 19 28 43 58 0
22 -14 23 31 15 24 -39 17 26 34 47 19 36 43 58 0
-13 22 -14 23 31 15 24 39 17 26 34 19 28 49 58 0
-12 22 -14 23 31 15 32 39 17 26 34 19 36 49 58 0
-12 22 -14 23 31 15 24 32 17 34 41 19 36 49 58 0
-12 -13 22 -14 23 15 24 39 26 34 -47 -19 28 -36 49 -58 0
-12 -13 22 -14 31 15 32 39 26 34 -47 -19 -28 36 49 -58 0
-12 -13 22 -14 23 24 32 17 26 41 -47 -19 28 -36 -49 58 0
-12 -13 22 -14 23 24 39 17 26 34 -47 -19 28 -43 -49 58 0
-12 -13 -14 23 31 32 39 17 26 41 -47 -19 -36 43 -49 58 0
-12 -13 22 -14 31 15 24 32 34 41 -47 -19 36 -43 49 -58 0
-12 -13 -14 23 31 15 24 39 34 41 -47 -19 -36 43 49 -58 0
-12 -13 22 -14 23 24 32 17 34 -47 -19 28 -36 -43 -49 -58 0
-12 -13 -14 23 31 32 39 17 34 -47 -19 -28 -36 43 -49 -58 0
-12 -13 22 -14 31 15 24 26 34 -47 -19 -28 36 -43 -49 -58 0
-12 -13 22 -14 23 15 32 26 34 -47 -19 28 -36 -43 -49 -58 0
-12 -13 22 -14 23 24 39 17 41 -47 -19 28 -36 -43 -49 -58 0
-12 -13 -14 23 31 15 24 26 41 -47 -19 -28 -36 43 -49 -58 0
-12 -13 22 -14 31 15 39 34 41 -47 -19 -28 36 -43 -49 -58 0
-13 22 -14 23 31 15 24 39 26 -34 47 -19 -28 36 -43 -49 -58 0
-12 22 -14 23 31 15 32 39 -26 34 47 -19 28 -36 -43 -49 -58 0
-13 22 -14 23 15 24 -39 17 26 34 47 19 -28 -36 -43 -49 -58 0
-12 22 -14 31 15 32 39 17 -26 34 47 19 -28 -36 -43 -49 -58 0
-13 22 -14 23 31 15 24 32 26 -41 47 -19 -28 -36 43 -49 -58 0
-12 -13 22 23 31 15 32 39 -26 41 47 -19 28 -36 -43 -49 -58 0
-12 22 -14 23 31 15 24 32 34 -41 47 -19 -28 -36 43 -49 -58 0
-12 -13 22 23 31 15 24 39 -34 41 47 -19 -28 36 -43 -49 -58 0
-12 -13 22 -14 31 24 32 17 34 41 -47 -20 -29 37 -50 59 0
-12 -13 -14 23 31 24 39 17 26 -47 -20 -29 -37 44 -50 -59 0
-12 -13 22 -14 23 24 32 17 34 -47 -20 29 -37 -44 -50 -59 0
-12 -13 -14 23 31 32 39 17 34 -47 -20 -29 -37 44 -50 -59 0
22 -14 23 31 15 24 32 17 34 -41 47 21 30 45 51 0
-12 22 -14 23 31 15 32 17 26 34 47 21 38 45 51 0
-13 22 23 31 15 24 39 17 26 -34 47 21 38 45 51 0
22 -14 23 31 15 24 32 17 26 -41 47 21 38 45 51 0
-13 22 -14 23 31 15 24 39 17 26 47 21 30 38 60 0
-12 22 -14 23 31 15 32 39 17 34 47 21 30 38 60 0
-13 22 23 31 15 -32 39 17 26 41 47 21 30 38 60 0
-13 22 -14 23 31 15 24 32 17 26 47 21 30 45 60 0
-12 -13 22 23 31 15 32 39 17 41 47 21 30 45 60 0
-12 22 23 31 15 -24 32 17 34 41 47 21 30 45 60 0
22 -14 23 31 15 24 -39 17 26 34 47 21 38 45 60 0
-12 22 -14 23 31 15 24 32 17 34 41 21 38 51 60 0
-12 -13 22 -14 31 15 32 39 26 34 -47 -21 -30 38 51 -60 0
-12 -13 22 -14 23 24 32 17 26 41 -47 -21 30 -38 -51 60 0
-12 -13 22 -14 23 24 39 17 26 34 -47 -21 30 -45 -51 60 0
-12 -13 22 -14 23 15 24 32 26 41 -47 -21 30 -45 51 -60 0
-12 -13 -14 23 31 15 32 39 26 41 -47 -21 -30 45 51 -60 0
-12 -13 -14 23 31 24 39 17 34 41 -47 -21 -30 45 -51 60 0
-12 -13 22 -14 31 32 39 17 26 34 -47 -21 38 -45 -51 60 0
-12 -13 -14 23 31 24 39 17 26 -47 -21 -30 -38 45 -51 -60 0
-12 -13 22 -14 31 15 24 26 34 -47 -21 -30 38 -45 -51 -60 0
-12 -13 22 -14 23 15 32 26 34 -47 -21 30 -38 -45 -51 -60 0
-12 -13 22 -14 23 24 39 17 41 -47 -21 30 -38 -45 -51 -60 0
-12 -13 22 -14 31 32 39 17 41 -47 -21 -30 38 -45 -51 -60 0
-13 22 -14 23 31 15 24 39 26 -34 47 -21 -30 38 -45 -51 -60 0
-13 22 -14 23 31 24 -39 17 26 34 47 -21 -30 -38 45 -51 -60 0
-13 22 -14 23 15 24 -39 17 26 34 47 21 -30 -38 -45 -51 -60 0
-13 22 -14 23 15 24 -32 17 26 41 47 21 -30 -38 -45 -51 -60 0
-12 22 -14 23 31 15 24 32 34 -41 47 -21 -30 -38 45 -51 -60 0
-12 22 -14 23 31 -24 32 17 34 41 47 -21 30 -38 -45 -51 -60 0
-12 22 -14 31 15 -24 32 17 34 41 47 21 -30 -38 -45 -51 -60 0
-12 22 -14 31 15 24 32 17 34 -41 47 21 -30 -38 -45 -51 -60 0
-12 -13 23 31 15 -24 39 17 34 41 47 21 -30 -38 -45 -51 -60 0
-12 22 -14 23 31 15 32 18 35 42 48 19 28 36 49 0
-13 22 23 31 15 24 39 18 -35 42 48 19 28 36 49 0
-12 -13 22 23 31 15 39 18 27 42 48 19 36 43 49 0
-13 22 -14 23 31 15 24 39 18 27 48 19 28 36 61 0
-12 -13 22 23 31 15 32 39 18 42 48 19 28 43 61 0
-12 22 23 31 15 -24 32 18 35 42 48 19 28 43 61 0
-13 22 -14 23 31 15 24 39 18 27 35 19 28 49 61 0
-12 22 -14 23 31 15 24 32 18 35 42 19 36 49 61 0
-12 -13 22 23 31 15 32 39 18 27 42 19 43 49 61 0
-13 22 23 31 15 24 32 18 -35 42 19 28 43 49 61 0
-12 22 23 31 15 -24 32 18 27 42 19 36 43 49 61 0
-12 -13 22 -14 23 24 32 18 27 42 -48 -19 28 -36 -49 61 0
-12 -13 22 -14 31 15 24 32 35 42 -48 -19 36 -43 49 -61 0
-12 -13 -14 23 31 15 24 39 35 42 -48 -19 -36 43 49 -61 0
-12 -13 -14 23 31 24 39 18 27 -48 -19 -28 -36 43 -49 -61 0
-12 -13 22 -14 23 24 32 18 35 -48 -19 28 -36 -43 -49 -61 0
-12 -13 -14 23 31 32 39 18 35 -48 -19 -28 -36 43 -49 -61 0
-12 -13 22 -14 31 15 24 27 35 -48 -19 -28 36 -43 -49 -61 0
-12 -13 22 -14 23 15 39 27 42 -48 -19 28 -36 -43 -49 -61 0
-12 -13 22 -14 31 15 39 35 42 -48 -19 -28 36 -43 -49 -61 0
-12 22 -14 31 15 32 39 18 -27 35 48 19 -28 -36 -43 -49 -61 0
-12 -13 22 23 31 -32 39 18 27 42 48 -19 -28 36 -43 -49 -61 0
-12 -13 23 31 15 32 39 18 -27 42 48 19 -28 -36 -43 -49 -61 0
-12 22 -14 23 31 15 24 32 35 -42 48 -19 -28 -36 43 -49 -61 0
-12 22 -14 23 31 -24 32 18 35 42 48 -19 28 -36 -43 -49 -61 0
-12 22 -14 31 15 -24 32 18 35 42 48 19 -28 -36 -43 -49 -61 0
-12 22 -14 31 15 24 32 18 35 -42 48 19 -28 -36 -43 -49 -61 0
-12 -13 22 23 31 -24 39 18 35 42 48 -19 28 -36 -43 -49 -61 0
-12 -13 23 31 15 -24 39 18 35 42 48 19 -28 -36 -43 -49 -61 0
-12 22 -14 23 31 15 32 18 35 42 48 20 29 37 50 0
-12 -13 22 23 31 15 39 18 35 42 48 20 29 44 50 0
-12 -13 -14 23 31 15 24 27 42 -48 -20 -29 -37 44 -50 -62 0
-12 -13 -14 23 31 15 32 35 42 -48 -20 -29 -37 44 -50 -62 0
-12 22 -14 31 15 32 39 18 -27 35 48 20 -29 -37 -44 -50 -62 0
-12 22 -14 23 31 -24 32 18 35 42 48 -20 29 -37 -44 -50 -62 0
-12 22 -14 31 15 -24 32 18 35 42 48 20 -29 -37 -44 -50 -62 0
-12 -13 22 23 31 -24 39 18 35 42 48 -20 29 -37 -44 -50 -62 0
-12 -13 23 31 15 -24 39 18 35 42 48 20 -29 -37 -44 -50 -62 0
-12 22 -14 23 31 15 32 18 35 42 48 21 30 38 51 0
-13 22 23 31 15 24 39 18 -35 42 48 21 30 38 51 0
22 -14 23 31 15 24 32 18 35 -42 48 21 30 45 51 0
-12 -13 22 23 31 15 39 18 35 42 48 21 30 45 51 0
-13 22 23 31 15 24 39 18 27 -35 48 21 38 45 51 0
-12 -13 22 23 31 15 39 18 27 42 48 21 38 45 51 0
-13 22 -14 23 31 15 24 39 18 27 48 21 30 38 63 0
-12 22 -14 23 31 15 32 39 18 35 48 21 30 38 63 0
-13 22 23 31 15 -32 39 18 27 42 48 21 30 38 63 0
-12 22 23 31 15 -24 39 18 35 42 48 21 30 38 63 0
-13 22 -14 23 31 15 24 32 18 27 48 21 30 45 63 0
22 -14 23 31 15 32 -39 18 27 35 48 21 30 45 63 0
-12 -13 22 23 31 15 32 39 18 42 48 21 30 45 63 0
-12 22 23 31 15 -24 32 18 35 42 48 21 30 45 63 0
-12 22 -14 23 31 15 24 32 18 35 48 21 38 45 63 0
22 -14 23 31 15 24 -39 18 27 35 48 21 38 45 63 0
-12 -13 22 23 31 15 24 39 18 42 48 21 38 45 63 0
-13 22 23 31 15 24 -32 18 27 42 48 21 38 45 63 0
-13 22 -14 23 31 15 24 39 18 27 35 21 30 51 63 0
-13 22 -14 23 31 15 24 32 18 27 42 21 30 51 63 0
-12 22 -14 23 31 15 32 39 18 27 35 21 38 51 63 0
-12 -13 22 -14 23 15 24 39 27 35 -48 -21 30 -38 51 -63 0
-12 -13 22 -14 23 24 32 18 27 42 -48 -21 30 -38 -51 63 0
-12 -13 22 -14 23 15 24 32 27 42 -48 -21 30 -45 51 -63 0
-12 -13 -14 23 31 15 32 39 27 42 -48 -21 -30 45 51 -63 0
-12 -13 -14 23 31 24 39 18 35 42 -48 -21 -30 45 -51 63 0
-12 -13 -14 23 31 32 39 18 27 42 -48 -21 -38 45 -51 63 0
-12 -13 22 -14 31 24 32 18 27 -48 -21 -30 38 -45 -51 -63 0
-12 -13 -14 23 31 24 39 18 27 -48 -21 -30 -38 45 -51 -63 0
-12 -13 22 -14 23 24 32 18 35 -48 -21 30 -38 -45 -51 -63 0
-12 -13 -14 23 31 32 39 18 35 -48 -21 -30 -38 45 -51 -63 0
-12 -13 22 -14 23 15 32 27 35 -48 -21 30 -38 -45 -51 -63 0
-12 -13 22 -14 23 24 39 18 42 -48 -21 30 -38 -45 -51 -63 0
-12 -13 22 -14 31 32 39 18 42 -48 -21 -30 38 -45 -51 -63 0
-12 -13 -14 23 31 15 32 35 42 -48 -21 -30 -38 45 -51 -63 0
-13 22 -14 23 31 24 -39 18 27 35 48 -21 -30 -38 45 -51 -63 0
-13 22 -14 23 15 24 -39 18 27 35 48 21 -30 -38 -45 -51 -63 0
-13 22 -14 23 15 24 39 18 27 -35 48 21 -30 -38 -45 -51 -63 0
-12 22 -14 31 15 32 -39 18 27 35 48 21 -30 -38 -45 -51 -63 0
-12 -13 22 23 31 15 32 39 -27 42 48 -21 30 -38 -45 -51 -63 0
-13 22 -14 23 31 24 -32 18 27 42 48 -21 -30 38 -45 -51 -63 0
-13 22 -14 23 15 24 32 18 27 -42 48 21 -30 -38 -45 -51 -63 0
-12 22 -14 23 31 15 24 32 35 -42 48 -21 -30 -38 45 -51 -63 0
-12 22 -14 31 15 -24 32 18 35 42 48 21 -30 -38 -45 -51 -63 0
-12 -13 22 23 31 -24 39 18 35 42 48 -21 30 -38 -45 -51 -63 0
-12 -13 23 15 24 -39 -19 -28 -36 -43 -49 -20 29 37 44 64 0
-13 -14 23 15 -24 39 -19 -28 -36 -43 -49 -20 29 37 44 64 0
-12 -13 31 15 32 -39 -19 -28 -36 -43 -49 -20 29 37 44 64 0
-12 -13 22 23 31 15 32 39 -19 28 -36 -43 -49 -30 45 51 -65 0
13 -22 14 23 16 25 40 17 -26 34 52 18 27 35 42 0
-13 22 -14 23 31 16 25 17 26 41 52 18 27 35 53 0
-12 22 23 31 16 33 40 17 -26 41 52 18 27 35 53 0
-12 22 23 31 16 33 40 17 26 41 52 18 -27 35 53 0
-12 22 -14 23 31 16 33 17 34 41 52 18 27 35 53 0
-13 22 23 31 16 25 40 17 -34 41 52 18 27 35 53 0
-13 22 -14 23 31 16 25 17 26 34 52 18 27 42 53 0
13 -22 14 23 31 16 25 17 -26 34 52 18 27 42 53 0
-12 22 23 31 16 33 40 17 -26 34 52 18 27 42 53 0
-12 22 23 31 16 33 40 17 26 34 52 18 -27 42 53 0
22 -14 23 31 16 25 33 17 34 -41 52 18 27 42 53 0
22 14 23 -31 16 25 33 17 34 -41 52 18 27 42 53 0
22 14 -23 31 16 25 33 17 34 41 52 18 27 -42 53 0
22 14 23 31 16 -25 33 17 34 41 52 18 27 42 -53 0
-12 -13 22 23 31 16 40 17 34 41 52 18 27 42 53 0
-12 22 -14 23 31 16 33 17 26 34 52 18 35 42 53 0
-13 22 23 31 16 25 40 17 26 -34 52 18 35 42 53 0
-13 22 23 31 16 25 40 17 26 34 52 18 -35 42 53 0
22 -14 23 31 16 25 33 17 26 -41 52 18 35 42 53 0
22 14 23 31 16 -25 33 17 26 41 -52 18 35 42 53 0
22 -14 23 31 16 25 33 17 26 41 52 18 35 -42 53 0
-12 -13 22 23 31 16 40 17 26 41 52 18 35 42 53 0
22 14 31 16 25 17 26 -34 -41 52 18 27 35 42 53 0
22 14 31 16 25 17 -26 34 41 -52 18 27 35 42 53 0
22 14 23 16 33 17 26 34 41 52 18 -27 35 -42 53 0
-13 22 -14 23 31 16 25 40 17 26 52 18 27 35 57 0
-12 22 -14 23 31 16 33 40 17 34 52 18 27 35 57 0
-13 22 23 31 16 33 40 17 26 41 52 18 27 -35 57 0
-13 22 -14 23 31 16 25 33 17 26 52 18 27 42 57 0
13 -22 14 23 31 16 -25 33 17 26 52 18 27 42 57 0
22 -14 23 31 16 33 -40 17 26 34 52 18 27 42 57 0
22 14 23 -31 16 33 -40 17 26 34 52 18 27 42 57 0
22 14 23 31 16 33 40 17 26 -34 -52 18 27 42 57 0
22 -14 23 31 16 33 40 17 26 34 52 18 27 -42 57 0
22 14 23 31 16 33 40 17 -26 34 52 18 27 42 -57 0
-12 -13 22 23 31 16 33 40 17 41 52 18 27 42 57 0
-12 22 23 31 16 -25 33 17 34 41 52 18 27 42 57 0
-12 22 23 31 16 25 33 17 34 41 52 18 -27 42 57 0
-12 22 -14 23 31 16 25 33 17 34 52 18 35 42 57 0
22 -14 23 31 16 25 -40 17 26 34 52 18 35 42 57 0
22 14 23 31 16 25 40 17 -26 34 -52 18 35 42 57 0
22 -14 23 31 16 25 40 17 26 34 52 18 35 -42 57 0
22 14 23 31 16 25 40 17 26 -34 52 18 35 42 -57 0
-12 -13 22 23 31 16 25 40 17 41 52 18 35 42 57 0
-13 22 23 31 16 25 -33 17 26 41 52 18 35 42 57 0
-13 22 23 31 16 25 33 17 26 41 52 18 -35 42 57 0
-13 22 -14 23 31 16 25 40 17 26 34 18 27 53 57 0
13 -22 14 -23 31 16 25 40 17 26 34 18 27 53 57 0
-13 22 -14 23 31 16 25 33 17 26 41 18 27 53 57 0
22 14 31 16 25 33 40 17 26 -34 -41 18 27 53 57 0
22 14 31 16 25 33 40 17 -26 34 41 18 27 53 -57 0
-12 22 -14 23 31 16 33 40 17 26 34 18 35 53 57 0
-12 22 -14 23 31 16 25 33 17 34 41 18 35 53 57 0
22 14 23 16 25 33 40 17 -26 34 -41 18 35 53 57 0
22 -14 23 31 16 33 -40 17 26 41 18 27 35 53 57 0
22 14 23 -31 16 33 -40 17 26 41 18 27 35 53 57 0
22 -14 23 31 16 33 40 17 26 -41 18 27 35 53 57 0
22 14 23 31 16 33 40 17 26 41 18 27 -35 -53 57 0
22 14 23 31 16 33 40 17 26 41 18 -27 35 53 -57 0
22 -14 23 31 16 25 -40 17 34 41 18 27 35 53 57 0
22 14 -23 31 16 25 -40 17 34 41 18 27 35 53 57 0
22 -14 23 31 16 25 40 17 34 -41 18 27 35 53 57 0
22 14 23 31 16 25 40 17 34 41 18 27 -35 53 -57 0
-12 -13 22 23 31 16 33 40 17 26 41 18 42 53 57 0
-12 -13 22 23 31 16 25 40 17 34 41 18 42 53 57 0
-13 22 23 31 16 -33 40 17 26 34 18 27 42 53 57 0
-13 22 23 31 16 33 40 17 26 -34 18 27 42 53 57 0
-13 22 23 31 16 25 -33 17 34 41 18 27 42 53 57 0
-13 22 23 31 16 25 33 17 -34 41 18 27 42 53 57 0
-12 22 23 31 16 -25 40 17 26 34 18 35 42 53 57 0
-12 22 23 31 16 25 40 17 -26 34 18 35 42 53 57 0
-12 22 23 31 16 25 33 17 -26 41 18 35 42 53 57 0
-13 22 -14 23 31 16 25 17 26 34 52 19 28 43 54 0
-12 22 -14 23 31 16 33 17 26 34 52 19 36 43 54 0
22 -14 23 31 16 25 33 17 26 -41 52 19 36 43 54 0
-13 22 -14 23 31 16 25 40 17 26 52 19 28 36 58 0
-12 22 -14 23 31 16 33 40 17 34 52 19 28 36 58 0
-13 22 -14 23 31 16 25 33 17 26 52 19 28 43 58 0
22 -14 23 31 16 33 -40 17 26 34 52 19 28 43 58 0
-12 22 -14 23 31 16 25 33 17 34 52 19 36 43 58 0
22 -14 23 31 16 25 -40 17 26 34 52 19 36 43 58 0
-12 -13 22 23 31 16 33 40 17 26 41 19 43 54 58 0
-12 -13 22 -14 31 16 33 40 26 34 -52 -19 -28 36 54 -58 0
-12 -13 22 -14 31 25 33 17 34 41 -52 -19 -28 36 -54 58 0
-12 -13 -14 23 31 16 33 40 26 41 -52 -19 -28 43 54 -58 0
-12 -13 22 -14 31 33 40 17 26 34 -52 -19 36 -43 -54 58 0
-12 -13 -14 23 31 33 40 17 26 41 -52 -19 -36 43 -54 58 0
-12 -13 22 -14 31 16 25 33 34 41 -52 -19 36 -43 54 -58 0
-12 -13 22 -14 31 25 33 17 26 -52 -19 -28 36 -43 -54 -58 0
-12 -13 -14 23 31 25 40 17 26 -52 -19 -28 -36 43 -54 -58 0
-12 -13 22 -14 23 25 33 17 34 -52 -19 28 -36 -43 -54 -58 0
-12 -13 -14 23 31 33 40 17 34 -52 -19 -28 -36 43 -54 -58 0
-12 -13 22 -14 23 16 33 26 34 -52 -19 28 -36 -43 -54 -58 0
-12 -13 22 -14 31 33 40 17 41 -52 -19 -28 36 -43 -54 -58 0
-12 -13 22 -14 23 16 40 26 41 -52 -19 28 -36 -43 -54 -58 0
-12 -13 -14 23 31 16 33 34 41 -52 -19 -28 -36 43 -54 -58 0
-12 -13 22 -14 31 16 40 34 41 -52 -19 -28 36 -43 -54 -58 0
-12 22 -14 23 31 16 33 40 -26 34 52 -19 28 -36 -43 -54 -58 0
-13 22 -14 23 31 25 -40 17 26 34 52 -19 -28 -36 43 -54 -58 0
-12 22 -14 31 16 33 40 17 -26 34 52 19 -28 -36 -43 -54 -58 0
-12 -13 22 23 31 16 33 40 -26 41 52 -19 28 -36 -43 -54 -58 0
-13 22 -14 23 16 25 -33 17 26 41 52 19 -28 -36 -43 -54 -58 0
-12 -13 22 23 31 -33 40 17 26 41 52 -19 -28 36 -43 -54 -58 0
-12 22 -14 23 31 16 25 33 34 -41 52 -19 -28 -36 43 -54 -58 0
-12 -13 22 23 31 16 25 40 -34 41 52 -19 -28 36 -43 -54 -58 0
-12 22 -14 23 31 -25 33 17 34 41 52 -19 28 -36 -43 -54 -58 0
-12 -13 22 23 31 -25 40 17 34 41 52 -19 28 -36 -43 -54 -58 0
-13 22 -14 23 31 16 25 17 26 41 52 20 29 37 55 0
-13 22 23 31 16 25 40 17 26 -34 52 20 37 44 55 0
22 -14 23 31 16 25 33 17 26 -41 52 20 37 44 55 0
-13 22 -14 23 31 16 25 33 17 26 52 20 29 44 59 0
-12 -13 22 -14 23 16 25 40 26 34 -52 -20 29 -37 55 -59 0
-12 -13 22 -14 23 25 40 17 26 34 -52 -20 29 -44 -55 59 0
-12 -13 -14 23 31 25 40 17 26 -52 -20 -29 -37 44 -55 -59 0
-12 -13 22 -14 31 16 25 26 34 -52 -20 -29 37 -44 -55 -59 0
-13 22 -14 23 31 16 25 40 26 -34 52 -20 -29 37 -44 -55 -59 0
-13 22 -14 23 16 25 33 17 26 -41 52 20 -29 -37 -44 -55 -59 0
-13 22 -14 23 31 16 25 17 26 41 52 21 30 38 56 0
-12 22 23 31 16 33 40 17 -26 41 52 21 30 38 56 0
-12 22 -14 23 31 16 33 17 34 41 52 21 30 38 56 0
-13 22 23 31 16 25 40 17 -34 41 52 21 30 38 56 0
-13 22 -14 23 31 16 25 17 26 34 52 21 30 45 56 0
22 -14 23 31 16 25 33 17 34 -41 52 21 30 45 56 0
-12 -13 22 23 31 16 40 17 34 41 52 21 30 45 56 0
-13 22 23 31 16 -33 40 17 26 41 52 21 30 38 60 0
-12 -13 22 23 31 16 33 40 17 41 52 21 30 45 60 0
-12 22 -14 23 31 16 25 33 17 34 52 21 38 45 60 0
22 -14 23 31 16 25 -40 17 26 34 52 21 38 45 60 0
-12 -13 22 23 31 16 25 40 17 41 52 21 38 45 60 0
-12 -13 22 -14 23 16 25 40 26 34 -52 -21 30 -38 56 -60 0
-12 -13 22 -14 31 16 33 40 26 34 -52 -21 -30 38 56 -60 0
-12 -13 22 -14 23 25 33 17 26 41 -52 -21 30 -38 -56 60 0
-12 -13 22 -14 31 25 33 17 34 41 -52 -21 -30 38 -56 60 0
-12 -13 22 -14 23 25 40 17 26 34 -52 -21 30 -45 -56 60 0
-12 -13 22 -14 23 16 25 33 26 41 -52 -21 30 -45 56 -60 0
-12 -13 -14 23 31 16 33 40 26 41 -52 -21 -30 45 56 -60 0
-12 -13 22 -14 31 16 25 33 34 41 -52 -21 38 -45 56 -60 0
-12 -13 -14 23 31 16 25 40 34 41 -52 -21 -38 45 56 -60 0
-12 -13 22 -14 31 25 33 17 26 -52 -21 -30 38 -45 -56 -60 0
-12 -13 -14 23 31 25 40 17 26 -52 -21 -30 -38 45 -56 -60 0
-12 -13 22 -14 23 25 33 17 34 -52 -21 30 -38 -45 -56 -60 0
-12 -13 -14 23 31 33 40 17 34 -52 -21 -30 -38 45 -56 -60 0
-12 -13 22 -14 31 16 25 26 34 -52 -21 -30 38 -45 -56 -60 0
-12 -13 22 -14 23 16 33 26 34 -52 -21 30 -38 -45 -56 -60 0
-12 -13 -14 23 31 16 25 26 41 -52 -21 -30 -38 45 -56 -60 0
-13 22 -14 23 16 25 -40 17 26 34 52 21 -30 -38 -45 -56 -60 0
-12 22 -14 31 16 33 -40 17 26 34 52 21 -30 -38 -45 -56 -60 0
-13 22 -14 23 16 25 -33 17 26 41 52 21 -30 -38 -45 -56 -60 0
-12 -13 23 31 16 -33 40 17 26 41 52 21 -30 -38 -45 -56 -60 0
-12 22 -14 23 31 -25 33 17 34 41 52 -21 30 -38 -45 -56 -60 0
-12 22 -14 31 16 -25 33 17 34 41 52 21 -30 -38 -45 -56 -60 0
-12 -13 22 23 31 -25 40 17 34 41 52 -21 30 -38 -45 -56 -60 0
-13 22 23 31 16 25 40 18 -35 42 53 19 28 36 54 0
-12 -13 22 23 31 16 40 18 35 42 53 19 28 43 54 0
-12 -13 22 23 31 16 40 18 27 42 53 19 36 43 54 0
-13 22 -14 23 31 16 25 40 18 27 53 19 28 36 61 0
-12 22 23 31 16 -25 40 18 35 42 53 19 28 36 61 0
-12 -13 22 23 31 16 33 40 18 42 53 19 28 43 61 0
-12 -13 22 23 31 16 25 40 18 42 53 19 36 43 61 0
-13 22 23 31 16 25 -33 18 27 42 53 19 36 43 61 0
22 -14 23 31 16 33 40 18 27 -42 19 28 36 54 61 0
-12 -13 22 23 31 16 33 40 18 27 42 19 43 54 61 0
-12 -13 22 23 31 16 25 40 18 35 42 19 43 54 61 0
-12 -13 22 -14 23 16 25 40 27 35 -53 -19 28 -36 54 -61 0
-12 -13 22 -14 31 25 33 18 35 42 -53 -19 -28 36 -54 61 0
-12 -13 22 -14 23 25 40 18 27 35 -53 -19 28 -43 -54 61 0
-12 -13 22 -14 23 16 25 33 27 42 -53 -19 28 -43 54 -61 0
-12 -13 -14 23 31 25 40 18 35 42 -53 -19 -28 43 -54 61 0
-12 -13 -14 23 31 33 40 18 27 42 -53 -19 -36 43 -54 61 0
-12 -13 -14 23 31 16 25 40 35 42 -53 -19 -36 43 54 -61 0
-12 -13 22 -14 31 25 33 18 27 -53 -19 -28 36 -43 -54 -61 0
-12 -13 -14 23 31 25 40 18 27 -53 -19 -28 -36 43 -54 -61 0
-12 -13 22 -14 23 25 33 18 35 -53 -19 28 -36 -43 -54 -61 0
-12 -13 -14 23 31 33 40 18 35 -53 -19 -28 -36 43 -54 -61 0
-12 -13 22 -14 31 16 25 27 35 -53 -19 -28 36 -43 -54 -61 0
-12 -13 22 -14 23 16 33 27 35 -53 -19 28 -36 -43 -54 -61 0
-12 -13 22 -14 23 16 40 27 42 -53 -19 28 -36 -43 -54 -61 0
-12 -13 -14 23 31 16 33 35 42 -53 -19 -28 -36 43 -54 -61 0
-12 -13 22 -14 31 16 40 35 42 -53 -19 -28 36 -43 -54 -61 0
-12 22 -14 23 31 16 33 40 -27 35 53 -19 28 -36 -43 -54 -61 0
-13 22 -14 23 31 25 -40 18 27 35 53 -19 -28 -36 43 -54 -61 0
-13 22 -14 23 16 25 40 18 27 -35 53 19 -28 -36 -43 -54 -61 0
-13 22 -14 23 31 16 25 33 27 -42 53 -19 -28 -36 43 -54 -61 0
-13 22 -14 23 31 25 -33 18 27 42 53 -19 -28 36 -43 -54 -61 0
-12 -13 22 23 31 -33 40 18 27 42 53 -19 -28 36 -43 -54 -61 0
-12 -13 23 31 16 -33 40 18 27 42 53 19 -28 -36 -43 -54 -61 0
-12 -13 23 31 16 33 40 18 -27 42 53 19 -28 -36 -43 -54 -61 0
-12 22 -14 23 31 16 25 33 35 -42 53 -19 -28 -36 43 -54 -61 0
-12 -13 22 23 31 16 25 40 -35 42 53 -19 -28 36 -43 -54 -61 0
-12 22 -14 23 31 -25 33 18 35 42 53 -19 28 -36 -43 -54 -61 0
-12 22 -14 31 16 -25 33 18 35 42 53 19 -28 -36 -43 -54 -61 0
-12 -13 23 31 16 -25 40 18 35 42 53 19 -28 -36 -43 -54 -61 0
-12 -13 23 31 16 25 40 18 -35 42 53 19 -28 -36 -43 -54 -61 0
-12 -13 22 23 31 16 40 18 35 42 53 20 29 44 55 0
-12 22 -14 23 31 16 25 33 18 35 42 20 37 55 62 0
-12 -13 22 -14 23 16 25 33 27 42 -53 -20 29 -44 55 -62 0
-12 -13 22 -14 31 16 25 33 35 42 -53 -20 37 -44 55 -62 0
-12 -13 -14 23 31 16 25 40 35 42 -53 -20 -37 44 55 -62 0
-12 -13 -14 23 31 16 33 35 42 -53 -20 -29 -37 44 -55 -62 0
-12 -13 22 -14 31 16 40 35 42 -53 -20 -29 37 -44 -55 -62 0
-13 22 -14 23 31 16 25 18 27 42 53 21 30 38 56 0
-12 22 -14 23 31 16 33 18 35 42 53 21 30 38 56 0
-13 22 23 31 16 25 40 18 -35 42 53 21 30 38 56 0
-13 22 -14 23 31 16 25 18 27 35 53 21 30 45 56 0
22 -14 23 31 16 25 33 18 35 -42 53 21 30 45 56 0
-12 -13 22 23 31 16 40 18 35 42 53 21 30 45 56 0
-12 22 -14 23 31 16 33 18 27 35 53 21 38 45 56 0
-13 22 -14 23 31 16 25 40 18 27 53 21 30 38 63 0
-13 22 23 31 16 -33 40 18 27 42 53 21 30 38 63 0
-12 22 23 31 16 -25 40 18 35 42 53 21 30 38 63 0
-13 22 -14 23 31 16 25 33 18 27 53 21 30 45 63 0
22 -14 23 31 16 33 -40 18 27 35 53 21 30 45 63 0
-12 -13 22 23 31 16 33 40 18 42 53 21 30 45 63 0
-12 22 23 31 16 -25 33 18 35 42 53 21 30 45 63 0
-12 -13 22 23 31 16 25 40 18 42 53 21 38 45 63 0
-13 22 23 31 16 25 -33 18 27 42 53 21 38 45 63 0
-12 22 -14 23 31 16 25 33 18 35 42 21 38 56 63 0
-12 -13 22 -14 23 16 25 40 27 35 -53 -21 30 -38 56 -63 0
-12 -13 22 -14 23 25 33 18 27 42 -53 -21 30 -38 -56 63 0
-12 -13 22 -14 23 25 40 18 27 35 -53 -21 30 -45 -56 63 0
-12 -13 -14 23 31 16 33 40 27 42 -53 -21 -30 45 56 -63 0
-12 -13 -14 23 31 25 40 18 27 -53 -21 -30 -38 45 -56 -63 0
-12 -13 22 -14 23 25 33 18 35 -53 -21 30 -38 -45 -56 -63 0
-12 -13 -14 23 31 33 40 18 35 -53 -21 -30 -38 45 -56 -63 0
-12 -13 22 -14 31 16 25 27 35 -53 -21 -30 38 -45 -56 -63 0
-12 -13 22 -14 23 16 33 27 35 -53 -21 30 -38 -45 -56 -63 0
-12 -13 22 -14 23 25 40 18 42 -53 -21 30 -38 -45 -56 -63 0
-12 -13 -14 23 31 16 25 27 42 -53 -21 -30 -38 45 -56 -63 0
-12 -13 22 -14 23 16 40 27 42 -53 -21 30 -38 -45 -56 -63 0
-12 -13 22 -14 31 16 40 35 42 -53 -21 -30 38 -45 -56 -63 0
-12 22 -14 23 31 16 33 40 -27 35 53 -21 30 -38 -45 -56 -63 0
-13 22 -14 23 16 25 -40 18 27 35 53 21 -30 -38 -45 -56 -63 0
-12 22 -14 31 16 33 -40 18 27 35 53 21 -30 -38 -45 -56 -63 0
-12 22 -14 31 16 33 40 18 -27 35 53 21 -30 -38 -45 -56 -63 0
-13 22 -14 23 31 16 25 33 27 -42 53 -21 -30 -38 45 -56 -63 0
-13 22 -14 23 16 25 -33 18 27 42 53 21 -30 -38 -45 -56 -63 0
-12 -13 22 23 31 -33 40 18 27 42 53 -21 -30 38 -45 -56 -63 0
-12 22 -14 23 31 16 25 33 35 -42 53 -21 -30 -38 45 -56 -63 0
-12 22 -14 31 16 25 33 18 35 -42 53 21 -30 -38 -45 -56 -63 0
-13 22 -14 16 -25 33 -19 -28 -36 -43 -54 -20 29 37 44 64 0
-13 -14 23 16 -25 40 -19 -28 -36 -43 -54 -20 29 37 44 64 0
-12 -13 31 16 33 -40 -19 -28 -36 -43 -54 -20 29 37 44 64 0
-12 -14 31 16 -33 40 -19 -28 -36 -43 -54 -20 29 37 44 64 0
-12 -14 31 16 -33 40 -19 -28 -36 -43 -54 -21 30 38 45 65 0
-12 22 -14 16 25 -33 -20 29 37 44 -21 -30 -38 -45 -56 66 0
-13 -14 23 16 -25 40 -20 29 37 44 -21 -30 -38 -45 -56 66 0
-12 -14 31 16 -33 40 -20 29 37 44 -21 -30 -38 -45 -56 66 0
-13 22 -14 23 31 17 26 18 27 35 57 19 28 43 58 0
-12 -13 22 23 31 17 41 18 35 42 57 19 28 43 58 0
-12 22 -14 23 31 17 34 18 27 35 57 19 36 43 58 0
-13 22 23 31 17 26 41 18 27 -35 57 19 36 43 58 0
-13 22 23 31 17 -34 41 18 27 42 57 19 28 36 61 0
-12 22 23 31 17 -26 41 18 35 42 57 19 28 36 61 0
-13 22 -14 23 31 17 26 34 18 27 57 19 28 43 61 0
-12 -13 22 23 31 17 26 41 18 42 57 19 36 43 61 0
-12 -13 22 23 31 17 26 41 18 35 42 19 43 58 61 0
-12 -13 22 -14 31 26 34 18 35 42 -57 -19 -28 36 -58 61 0
-12 -13 22 -14 23 26 41 18 27 35 -57 -19 28 -43 -58 61 0
-12 -13 22 -14 31 34 41 18 27 35 -57 -19 36 -43 -58 61 0
-12 -13 -14 23 31 34 41 18 27 42 -57 -19 -36 43 -58 61 0
-12 -13 22 -14 31 17 26 34 35 42 -57 -19 36 -43 58 -61 0
-12 -13 22 -14 31 26 34 18 27 -57 -19 -28 36 -43 -58 -61 0
-12 -13 22 -14 23 26 34 18 35 -57 -19 28 -36 -43 -58 -61 0
-12 -13 -14 23 31 34 41 18 35 -57 -19 -28 -36 43 -58 -61 0
-12 -13 22 -14 23 17 34 27 35 -57 -19 28 -36 -43 -58 -61 0
-12 -13 22 -14 23 26 41 18 42 -57 -19 28 -36 -43 -58 -61 0
-12 -13 22 -14 31 34 41 18 42 -57 -19 -28 36 -43 -58 -61 0
-12 -13 -14 23 31 17 26 27 42 -57 -19 -28 -36 43 -58 -61 0
-12 -13 22 -14 23 17 41 27 42 -57 -19 28 -36 -43 -58 -61 0
-12 -13 -14 23 31 17 34 35 42 -57 -19 -28 -36 43 -58 -61 0
-13 22 -14 23 31 17 26 41 27 -35 57 -19 -28 36 -43 -58 -61 0
-13 22 -14 23 17 26 -41 18 27 35 57 19 -28 -36 -43 -58 -61 0
-13 22 -14 23 17 26 41 18 27 -35 57 19 -28 -36 -43 -58 -61 0
-13 22 -14 23 31 26 -34 18 27 42 57 -19 -28 36 -43 -58 -61 0
-13 22 -14 23 17 26 -34 18 27 42 57 19 -28 -36 -43 -58 -61 0
-12 -13 22 23 31 -34 41 18 27 42 57 -19 -28 36 -43 -58 -61 0
-12 -13 23 31 17 -34 41 18 27 42 57 19 -28 -36 -43 -58 -61 0
-12 -13 23 31 17 34 41 18 -27 42 57 19 -28 -36 -43 -58 -61 0
-12 -13 22 23 31 17 26 41 -35 42 57 -19 -28 36 -43 -58 -61 0
-12 22 -14 23 31 -26 34 18 35 42 57 -19 28 -36 -43 -58 -61 0
-12 22 -14 31 17 -26 34 18 35 42 57 19 -28 -36 -43 -58 -61 0
-12 -13 23 31 17 -26 41 18 35 42 57 19 -28 -36 -43 -58 -61 0
-12 -13 23 31 17 26 41 18 -35 42 57 19 -28 -36 -43 -58 -61 0
-12 22 23 31 17 34 41 18 -27 42 57 20 29 37 59 0
-12 22 -14 23 31 17 34 18 27 35 57 20 37 44 59 0
22 -14 23 31 17 34 -41 18 27 35 57 20 29 44 62 0
-12 -13 -14 23 31 17 34 41 27 42 -57 -20 -29 44 59 -62 0
-12 22 -14 31 17 34 -41 18 27 35 57 20 -29 -37 -44 -59 -62 0
-12 -13 22 23 31 17 34 41 -27 42 57 -20 29 -37 -44 -59 -62 0
-12 -13 23 31 17 34 41 18 -27 42 57 20 -29 -37 -44 -59 -62 0
-13 22 -14 23 31 17 26 18 27 42 57 21 30 38 60 0
-12 22 23 31 17 34 41 18 -27 42 57 21 30 38 60 0
-13 22 23 31 17 26 41 18 -35 42 57 21 30 38 60 0
-13 22 -14 23 31 17 26 18 27 35 57 21 30 45 60 0
22 -14 23 31 17 26 34 18 35 -42 57 21 30 45 60 0
-12 -13 22 23 31 17 41 18 35 42 57 21 30 45 60 0
-12 22 -14 23 31 17 34 18 27 35 57 21 38 45 60 0
22 -14 23 31 17 26 34 18 27 -42 57 21 38 45 60 0
-12 -13 22 23 31 17 41 18 27 42 57 21 38 45 60 0
-12 22 -14 23 31 17 34 41 18 35 57 21 30 38 63 0
-13 22 23 31 17 -34 41 18 27 42 57 21 30 38 63 0
-12 22 23 31 17 -26 41 18 35 42 57 21 30 38 63 0
-12 22 -14 23 31 17 26 34 18 35 57 21 38 45 63 0
-12 -13 22 23 31 17 26 41 18 42 57 21 38 45 63 0
-13 22 23 31 17 26 -34 18 27 42 57 21 38 45 63 0
-13 22 -14 23 31 17 26 41 18 27 35 21 30 60 63 0
-13 22 -14 23 31 17 26 34 18 27 42 21 30 60 63 0
-12 22 -14 23 31 17 26 34 18 35 42 21 38 60 63 0
-13 22 23 31 17 26 34 18 -35 42 21 30 45 60 63 0
-12 -13 22 -14 31 26 34 18 35 42 -57 -21 -30 38 -60 63 0
-12 -13 22 -14 23 26 41 18 27 35 -57 -21 30 -45 -60 63 0
-12 -13 -14 23 31 17 34 41 27 42 -57 -21 -30 45 60 -63 0
-12 -13 22 -14 31 17 26 34 35 42 -57 -21 38 -45 60 -63 0
-12 -13 -14 23 31 17 26 41 35 42 -57 -21 -38 45 60 -63 0
-12 -13 -14 23 31 26 41 18 27 -57 -21 -30 -38 45 -60 -63 0
-12 -13 22 -14 23 26 34 18 35 -57 -21 30 -38 -45 -60 -63 0
-12 -13 22 -14 31 34 41 18 42 -57 -21 -30 38 -45 -60 -63 0
-12 -13 -14 23 31 17 26 27 42 -57 -21 -30 -38 45 -60 -63 0
-12 -13 -14 23 31 17 34 35 42 -57 -21 -30 -38 45 -60 -63 0
-12 22 -14 23 31 17 34 41 -27 35 57 -21 30 -38 -45 -60 -63 0
-13 22 -14 23 31 26 -41 18 27 35 57 -21 -30 -38 45 -60 -63 0
-12 22 -14 23 31 34 -41 18 27 35 57 -21 -30 -38 45 -60 -63 0
-13 22 -14 23 31 26 -34 18 27 42 57 -21 -30 38 -45 -60 -63 0
-13 22 -14 23 17 26 -34 18 27 42 57 21 -30 -38 -45 -60 -63 0
-12 22 -14 23 31 17 26 34 35 -42 57 -21 -30 -38 45 -60 -63 0
-12 -13 22 23 31 17 26 41 -35 42 57 -21 -30 38 -45 -60 -63 0
-12 22 -14 31 17 -26 34 18 35 42 57 21 -30 -38 -45 -60 -63 0
-12 -13 23 31 17 -26 41 18 35 42 57 21 -30 -38 -45 -60 -63 0
-12 22 -14 17 26 -34 -19 -28 -36 -43 -58 -20 29 37 44 64 0
-12 -14 31 17 -34 41 -19 -28 -36 -43 -58 -20 29 37 44 64 0
-12 -13 22 23 31 17 26 -41 -20 37 -21 -30 38 -45 -60 -66 0
-12 -14 31 17 -34 41 -20 29 37 44 -21 -30 -38 -45 -60 66 0
-13 22 -14 18 -27 35 -19 -28 -36 -43 -61 -20 29 37 44 64 0
-12 -14 31 18 -35 42 -19 -28 -36 -43 -61 -20 29 37 44 64 0
-13 22 -14 23 31 18 -27 42 -19 -28 -36 43 61 -21 45 63 0
-13 22 -14 18 -27 35 -19 -28 -36 -43 -61 -21 30 38 45 65 0
-13 22 -14 18 -27 35 -20 29 37 44 -21 -30 -38 -45 -63 66 0
13 -22 15 24 16 25 46 17 26 34 52 18 -27 35 48 0
22 15 24 -32 16 25 33 17 34 -47 52 18 27 48 53 0
22 15 24 32 16 -25 -33 17 26 47 52 18 35 48 53 0
22 15 -24 32 16 25 33 17 26 -47 52 18 35 48 53 0
22 15 32 16 25 17 -26 -34 47 52 18 27 35 48 53 0
22 15 32 16 25 17 26 34 47 52 18 -27 -35 48 53 0
22 15 32 16 25 17 26 34 47 52 18 -27 35 48 -53 0
22 15 24 16 33 17 26 -34 47 -52 18 27 35 48 53 0
22 15 24 32 16 33 46 17 -26 -34 52 18 27 48 57 0
22 15 24 32 16 33 46 17 -26 34 52 18 27 48 -57 0
22 15 -24 32 16 25 -46 17 26 34 52 18 35 48 57 0
22 15 24 32 16 25 46 17 -26 -34 52 18 35 48 57 0
22 15 24 32 16 25 46 17 -26 34 -52 18 35 48 57 0
22 15 24 32 16 25 46 17 26 -34 52 18 35 48 -57 0
22 15 32 16 25 33 46 17 26 52 18 -27 -35 48 57 0
22 15 32 16 25 33 46 17 26 52 18 27 -35 -48 57 0
22 15 24 16 25 33 46 17 34 52 18 27 -35 48 -57 0
22 15 32 16 -25 -33 46 17 26 34 47 18 27 53 57 0
22 15 32 16 25 33 46 17 26 -34 -47 18 27 53 57 0
22 15 32 16 25 33 46 17 -26 34 47 18 27 53 -57 0
22 15 24 16 -25 -33 46 17 26 34 47 18 35 53 57 0
22 15 24 16 -25 33 -46 17 26 34 47 18 35 53 57 0
22 15 24 16 25 -33 46 17 26 34 47 18 35 -53 57 0
22 15 24 16 25 33 46 17 26 -34 47 18 35 53 -57 0
22 15 24 -32 16 25 46 17 34 -47 18 27 35 53 57 0
22 15 24 32 16 25 46 17 34 47 18 -27 35 -53 57 0
22 15 24 32 16 25 46 17 34 47 18 27 -35 53 -57 0
22 15 24 -32 16 25 33 17 34 -47 52 19 28 49 54 0
22 15 24 32 16 25 -33 17 34 47 -52 19 28 49 54 0
-12 22 15 -24 16 33 46 17 26 34 52 28 36 49 54 0
-12 22 15 24 16 33 46 17 -26 34 52 28 36 49 54 0
22 15 24 32 16 33 46 17 -26 -34 52 19 28 49 58 0
22 15 24 32 16 25 46 17 -26 -34 52 19 36 49 58 0
-12 22 15 32 16 -25 33 46 17 26 47 28 36 49 58 0
-13 22 15 24 16 25 33 46 17 -34 47 28 36 49 58 0
-13 22 15 -32 16 25 33 17 26 47 52 28 36 49 58 0
-12 22 15 -24 16 25 33 17 34 47 52 28 36 49 58 0
22 15 32 16 -25 -33 46 17 26 34 47 19 28 54 58 0
22 15 32 16 25 33 46 17 -26 -34 47 19 28 54 58 0
22 15 24 16 25 33 46 17 -26 34 -47 19 36 54 58 0
-13 22 15 24 -32 16 33 17 26 47 52 28 36 54 58 0
22 15 24 -32 16 33 -46 17 26 47 19 28 36 54 58 0
-13 22 15 24 -32 16 -25 46 26 -34 47 -19 28 -36 49 -54 0
-13 22 15 -24 16 25 -33 46 26 -34 52 -19 28 -36 -49 54 0
-12 22 15 -32 16 -25 33 46 -26 34 52 -19 -28 36 -49 54 0
-12 22 15 -32 -25 33 17 -26 34 47 52 -19 -28 36 -49 58 0
-13 22 15 -24 16 -46 17 26 34 -47 52 19 -28 -36 -49 58 0
-13 22 24 -32 16 25 -33 46 17 -26 52 -19 28 -36 54 -58 0
-13 22 24 -32 16 -25 17 26 -34 47 52 -19 28 -36 -54 58 0
-12 22 -24 32 16 -33 17 -26 34 47 52 -19 -28 36 -54 58 0
-13 22 15 16 -25 -46 17 26 34 47 -52 19 -28 -36 -54 58 0
-12 22 15 16 -33 -46 17 26 34 47 -52 19 -28 -36 -54 58 0
-13 22 -24 32 16 -46 17 26 34 -47 52 -19 36 -49 -54 58 0
-12 15 24 -32 -25 33 17 -26 34 47 52 -28 -36 49 -54 58 0
-12 22 15 -24 32 16 -33 46 17 -26 19 -28 -36 -49 -54 -58 0
-12 22 15 -32 16 25 33 -46 34 -47 -19 -28 36 -49 -54 -58 0
-12 -24 32 16 -25 33 46 26 -34 47 -19 -28 -36 -49 54 -58 0
-13 24 -32 16 25 -33 46 -26 34 47 -19 -28 -36 -49 54 -58 0
-13 22 15 -24 16 -33 17 26 -34 47 19 -28 -36 -49 -54 -58 0
-13 22 15 -24 25 -46 17 26 34 -47 -19 28 -36 -49 -54 -58 0
-13 22 15 24 32 16 -25 -46 26 -52 -19 28 -36 -49 -54 -58 0
-12 15 -24 32 -25 33 46 26 -34 52 -19 -28 -36 49 -54 -58 0
-13 22 24 16 -25 -46 17 26 34 -52 -19 28 -36 -49 -54 -58 0
-13 22 15 24 32 25 17 -26 -47 -52 -19 28 -36 -49 -54 -58 0
-12 22 15 24 32 33 17 -34 -47 -52 -19 -28 36 -49 -54 -58 0
-13 15 32 16 25 46 -26 34 -47 -52 -19 -28 -36 -49 54 -58 0
-13 15 -24 -32 16 25 46 17 26 34 52 -19 -28 -36 49 -54 -58 0
-12 15 24 32 16 33 46 17 -26 -34 52 -19 -28 -36 -49 -54 58 0
-13 15 24 32 16 -25 -33 17 26 47 52 -19 -28 -36 -49 54 -58 0
-12 15 24 32 16 -25 -33 17 34 47 52 -19 -28 -36 -49 54 -58 0
22 15 -24 -32 16 25 33 17 26 47 52 20 37 50 55 0
22 15 -24 32 16 25 33 17 26 -47 52 20 37 50 55 0
-13 22 15 32 16 25 46 17 26 -34 52 29 37 50 55 0
22 15 24 32 16 25 46 17 -26 34 -52 20 37 50 59 0
-13 22 15 24 -32 16 -25 46 26 -34 47 -20 29 -37 50 -55 0
-13 22 15 -24 16 25 -33 46 26 -34 52 -20 29 -37 -50 55 0
-13 15 -24 32 16 25 -33 46 26 -34 52 -29 -37 50 55 -59 0
-13 15 32 16 25 46 -26 34 -47 -52 -20 -29 -37 -50 55 -59 0
-12 22 15 32 16 25 33 46 -26 -34 47 -20 29 -37 -50 -55 -59 0
-13 15 24 16 -25 -33 46 17 26 34 47 -20 -29 -37 -50 55 -59 0
-12 15 32 16 -25 -33 46 17 26 34 47 -20 -29 -37 -50 55 -59 0
-12 15 24 32 16 -25 -33 17 34 47 52 -20 -29 -37 -50 55 -59 0
22 15 -24 -32 16 25 33 17 34 47 52 21 30 51 56 0
-12 22 15 32 16 -25 46 17 26 34 47 30 38 51 56 0
-13 22 15 -32 16 25 46 17 26 34 52 30 38 51 56 0
-12 22 15 -24 16 33 46 17 26 34 52 30 38 51 56 0
22 15 -24 32 16 25 -46 17 26 34 52 21 38 51 60 0
22 15 24 32 16 25 46 17 -26 -34 52 21 38 51 60 0
-12 22 15 32 16 -25 33 46 17 26 47 30 38 51 60 0
-12 22 15 32 16 25 33 46 17 -26 47 30 38 51 60 0
-13 22 15 24 16 25 -33 46 17 34 47 30 38 51 60 0
-13 22 15 -32 16 25 33 17 26 47 52 30 38 51 60 0
22 15 32 16 25 -33 -46 17 26 34 47 21 30 56 60 0
22 15 32 16 25 33 46 17 -26 -34 47 21 30 56 60 0
22 15 24 16 -25 33 -46 17 26 34 47 21 38 56 60 0
22 15 24 16 25 33 46 17 -26 -34 47 21 38 56 60 0
22 15 24 16 25 33 46 17 -26 34 -47 21 38 56 60 0
-12 -13 22 15 16 33 46 17 26 47 30 38 51 56 60 0
-13 22 15 -24 16 25 -33 46 26 -34 52 -21 30 -38 -51 56 0
-12 22 15 24 32 16 -33 -46 17 47 -52 21 -30 -38 51 -56 0
-12 22 15 24 32 16 46 17 -34 -47 -52 21 -30 -38 51 -60 0
-13 22 15 -24 25 -33 17 26 -34 47 52 -21 30 -38 -51 60 0
-13 22 24 -32 16 25 -33 46 17 -26 52 -21 30 -38 56 -60 0
-13 22 15 16 25 33 46 17 -26 -47 -52 21 -30 -38 56 -60 0
-12 22 -24 32 16 -33 17 -26 34 47 52 -21 -30 38 -56 60 0
-12 22 15 24 32 25 -33 -46 17 47 -52 -21 30 51 -56 -60 0
-13 22 15 16 25 33 46 -26 34 -47 -52 -21 38 -51 56 -60 0
-12 15 -24 32 16 25 -33 46 -26 34 47 -30 -38 51 56 -60 0
-12 15 24 -32 16 -25 33 46 -26 34 52 -30 -38 51 56 -60 0
-13 22 15 24 -32 16 -25 46 17 -34 21 -30 -38 -51 -56 -60 0
-12 22 15 -32 16 25 33 -46 34 -47 -21 -30 38 -51 -56 -60 0
-12 22 15 -24 32 16 -25 17 -34 47 21 -30 -38 -51 -56 -60 0
-13 24 -32 16 25 -33 46 -26 34 47 -21 -30 -38 -51 56 -60 0
-12 22 15 24 32 16 -33 -46 34 -52 -21 -30 38 -51 -56 -60 0
-12 22 15 -24 16 -25 33 17 -34 52 21 -30 -38 -51 -56 -60 0
-13 22 15 -32 16 -25 17 26 -34 52 21 -30 -38 -51 -56 -60 0
-12 22 32 16 -33 -46 17 26 34 -52 -21 -30 38 -51 -56 -60 0
-12 24 -32 -25 33 46 17 -26 34 52 -21 -30 -38 -51 -56 60 0
-13 22 24 16 25 33 17 -26 -47 -52 -21 30 -38 -51 -56 -60 0
-12 22 15 24 32 33 17 -34 -47 -52 -21 -30 38 -51 -56 -60 0
-12 24 -32 16 25 -46 17 34 -47 52 -21 -30 -38 -51 -56 60 0
-13 -24 32 16 25 -46 17 34 -47 52 -21 -30 -38 -51 56 -60 0
-13 15 24 -25 33 -46 17 34 47 -52 -21 -30 -38 51 -56 -60 0
-13 22 15 24 -25 -33 46 17 26 34 47 -21 -30 38 -51 -56 -60 0
-12 22 15 32 -25 -33 46 17 26 34 47 -21 30 -38 -51 -56 -60 0
-13 15 24 16 -25 -33 46 17 26 34 47 -21 -30 -38 -51 56 -60 0
-12 15 24 32 16 33 46 17 -26 -34 52 -21 -30 -38 -51 -56 60 0
-12 22 -24 -32 16 25 33 17 34 47 52 -21 30 -38 -51 -56 -60 0
-12 22 15 24 16 33 46 18 -27 35 53 28 36 49 54 0
-13 22 15 32 16 25 -33 18 27 48 53 28 36 49 61 0
-12 22 15 24 16 -25 33 18 35 48 53 28 36 49 61 0
22 15 32 16 25 33 46 18 27 -35 -48 19 28 54 61 0
22 15 24 16 25 33 46 18 -27 -35 48 19 36 54 61 0
-13 22 15 24 32 16 25 46 18 -35 53 28 36 54 61 0
-12 22 15 -24 32 16 -33 46 -27 35 48 -19 -28 36 49 -54 0
-13 22 15 -24 25 -33 18 27 -35 48 53 -19 28 -36 -49 61 0
-12 22 15 16 25 33 46 18 -35 -48 -53 19 -28 -36 54 -61 0
-12 22 -24 32 16 -33 18 -27 35 48 53 -19 -28 36 -54 61 0
-12 22 15 25 -33 -46 18 27 35 48 -53 -19 28 -49 -54 61 0
-13 22 15 16 25 33 46 -27 35 -48 -53 -19 36 -49 54 -61 0
-13 22 -24 32 16 -46 18 27 35 -48 53 -19 36 -49 -54 61 0
-13 22 15 -25 33 -46 18 27 35 48 -53 -19 36 -49 -54 61 0
-12 15 -24 32 16 25 -33 46 -27 35 48 -28 -36 49 54 -61 0
-13 15 -24 32 16 25 -33 46 27 -35 53 -28 -36 49 54 -61 0
-12 22 15 -32 16 25 33 -46 35 -48 -19 -28 36 -49 -54 -61 0
-12 -24 32 16 -25 33 46 27 -35 48 -19 -28 -36 -49 54 -61 0
-13 24 -32 16 25 -33 46 -27 35 48 -19 -28 -36 -49 54 -61 0
-12 -24 32 25 -33 46 18 -27 35 48 -19 -28 -36 -49 -54 61 0
-12 22 15 24 32 16 -33 -46 35 -53 -19 -28 36 -49 -54 -61 0
-12 22 15 -24 16 -25 33 18 -35 53 19 -28 -36 -49 -54 -61 0
-13 15 24 -32 25 -33 46 -27 35 53 -19 -28 -36 49 -54 -61 0
-12 22 15 -24 16 -33 18 -27 35 53 19 -28 -36 -49 -54 -61 0
-13 22 24 16 -25 -46 18 27 35 -53 -19 28 -36 -49 -54 -61 0
-12 24 -32 -25 33 46 18 -27 35 53 -19 -28 -36 -49 -54 61 0
-12 22 32 16 25 33 18 -35 -48 -53 -19 -28 36 -49 -54 -61 0
-12 15 24 25 -33 -46 18 35 48 -53 -19 -28 -36 -49 -54 61 0
-12 24 -32 16 -25 33 -27 35 48 53 -19 -28 -36 -49 54 -61 0
-13 -24 32 16 25 -33 27 -35 48 53 -19 -28 -36 -49 54 -61 0
-13 15 32 16 25 46 -27 35 -48 -53 -19 -28 -36 -49 54 -61 0
-13 22 15 24 -25 -33 46 18 27 35 48 -19 -28 36 -49 -54 -61 0
-12 15 32 16 25 33 46 18 -27 -35 48 -19 -28 -36 -49 -54 61 0
-12 15 32 16 -25 -33 46 18 27 35 48 -19 -28 -36 -49 54 -61 0
-13 22 -24 -32 16 25 46 18 27 35 53 -19 -28 36 -49 -54 -61 0
-12 15 24 32 16 -25 -33 18 35 48 53 -19 -28 -36 -49 54 -61 0
-13 22 15 24 16 25 33 46 18 -35 48 29 37 50 62 0
-12 22 15 -24 32 16 -33 46 -27 35 48 -20 -29 37 50 -55 0
-13 15 24 32 16 25 46 18 -27 -35 53 -20 -29 -37 -50 -55 62 0
22 15 -24 -32 16 25 33 18 35 48 53 21 30 51 56 0
22 15 24 32 16 -25 -33 18 27 48 53 21 38 51 56 0
-12 22 15 32 16 25 46 18 -27 35 48 30 38 51 56 0
22 15 -24 -32 16 25 46 18 27 35 53 21 38 51 63 0
22 15 24 32 16 25 46 18 -27 35 -53 21 38 51 63 0
-12 22 15 32 16 -25 33 46 18 27 48 30 38 51 63 0
-13 22 15 24 16 25 -33 46 18 35 48 30 38 51 63 0
-12 22 15 -24 16 25 33 18 35 48 53 30 38 51 63 0
22 15 32 16 -25 -33 46 18 27 35 48 21 30 56 63 0
22 15 32 16 25 -33 -46 18 27 35 48 21 30 56 63 0
22 15 32 16 25 33 46 18 27 -35 -48 21 30 56 63 0
22 15 24 16 -25 -33 46 18 27 35 48 21 38 56 63 0
22 15 24 16 -25 33 -46 18 27 35 48 21 38 56 63 0
-12 22 15 -24 32 16 33 46 18 27 53 30 38 56 63 0
-12 22 15 24 32 16 33 46 18 -27 53 30 38 56 63 0
-12 -13 22 15 16 33 46 18 27 48 30 38 51 56 63 0
-13 22 15 24 32 16 -25 -46 18 48 -53 21 -30 -38 51 -56 0
-13 22 15 -24 16 25 33 -46 18 -48 53 21 -30 -38 -51 56 0
-12 22 15 -32 16 25 33 -46 18 -48 53 21 -30 -38 -51 56 0
-12 22 15 -32 -25 33 18 -27 35 48 53 -21 -30 38 -51 63 0
-13 22 15 16 -25 -46 18 27 35 48 -53 21 -30 -38 -56 63 0
-12 22 15 16 -33 -46 18 27 35 48 -53 21 -30 -38 -56 63 0
-12 15 -24 32 -25 33 46 18 27 -35 48 -30 -38 51 -56 63 0
-12 15 24 -32 -25 33 18 -27 35 48 53 -30 -38 51 -56 63 0
-13 22 15 -24 16 25 33 -46 27 -48 -21 30 -38 -51 -56 -63 0
-12 22 15 -32 16 25 33 -46 35 -48 -21 -30 38 -51 -56 -63 0
-12 22 15 -24 32 16 -25 18 -35 48 21 -30 -38 -51 -56 -63 0
-12 -24 32 16 -25 33 46 27 -35 48 -21 -30 -38 -51 56 -63 0
-13 22 15 -24 25 -46 18 27 35 -48 -21 30 -38 -51 -56 -63 0
-13 22 15 -32 16 25 -33 18 -27 53 21 -30 -38 -51 -56 -63 0
-12 22 15 24 32 16 -33 -46 35 -53 -21 -30 38 -51 -56 -63 0
-12 15 -24 32 -25 33 46 27 -35 53 -21 -30 -38 51 -56 -63 0
-13 15 24 -32 25 -33 46 -27 35 53 -21 -30 -38 51 -56 -63 0
-13 22 24 16 -25 -46 18 27 35 -53 -21 30 -38 -51 -56 -63 0
-13 22 15 24 32 25 18 -27 -48 -53 -21 30 -38 -51 -56 -63 0
-13 -24 32 16 33 -46 18 27 -48 53 -21 -30 -38 -51 -56 63 0
-12 24 -32 16 25 -46 18 35 -48 53 -21 -30 -38 -51 -56 63 0
-12 15 24 16 33 46 27 -35 -48 -53 -21 -30 -38 -51 56 -63 0
-13 22 15 24 -25 -33 46 18 27 35 48 -21 -30 38 -51 -56 -63 0
-12 22 -24 -32 16 33 46 18 27 35 53 -21 30 -38 -51 -56 -63 0
-13 22 15 24 32 -25 -33 18 27 48 53 -21 -30 38 -51 -56 -63 0
-12 15 -24 -32 16 25 33 18 35 48 53 -21 -30 -38 51 -56 -63 0
-13 22 24 16 25 33 46 -19 -28 -36 -49 -54 -20 29 37 -50 64 0
-13 22 15 24 32 25 46 -19 -28 -36 -49 -54 -20 29 37 -55 64 0
-12 -13 -32 -25 -46 -19 -28 -36 -49 -54 -21 30 -38 -51 56 0
-12 -13 -32 -25 -46 -19 -28 -36 -49 -54 21 -30 38 -51 -56 0
-12 -13 -32 -25 -46 -19 -28 -36 -49 -54 21 30 -38 -51 -56 0
-12 -13 -32 -25 -46 -19 -28 36 49 -54 -21 -30 -38 -51 -56 0
-12 -13 -24 -33 -46 -19 -28 -36 -49 -54 -21 -30 38 -51 56 0
-12 -13 -24 -33 -46 -19 -28 36 -49 54 -21 -30 -38 -51 -56 0
-12 -13 -24 -33 -46 -19 28 -36 49 -54 -21 -30 -38 -51 -56 0
-12 -13 22 -24 32 -33 -46 -19 -36 -54 -21 -30 -51 -56 -65 0
-12 -13 15 24 -32 -25 -46 -19 -28 -36 -54 -38 -51 -56 -65 0
-13 -24 32 25 -33 46 -19 -28 -36 -49 -54 21 30 -38 56 65 0
-13 15 32 16 -25 -46 28 36 49 -54 -21 -30 -38 -51 -56 65 0
-13 15 24 16 25 33 46 -19 -28 -36 -49 -54 21 -30 -38 51 65 0
-12 22 32 16 25 33 46 -19 -28 -36 -49 -54 -21 30 38 -51 65 0
-12 15 32 16 25 33 46 -19 -28 -36 -49 -54 21 -30 -38 51 65 0
-13 22 15 24 32 25 46 -19 -28 -36 -49 -54 -21 30 38 -56 65 0
22 15 -24 32 17 26 34 18 27 -48 57 19 36 49 58 0
-12 22 15 32 17 -26 47 18 27 35 48 28 36 49 58 0
-13 22 15 24 17 -34 47 18 27 35 48 28 36 49 58 0
-13 22 15 24 17 34 47 18 27 -35 48 28 36 49 58 0
22 15 24 32 17 34 47 18 -27 -35 57 19 28 49 61 0
22 15 24 32 17 26 47 18 -27 -35 57 19 36 49 61 0
-12 22 15 24 17 -26 34 18 35 48 57 28 36 49 61 0
22 15 32 17 26 34 47 18 -27 -35 48 19 28 58 61 0
-12 22 15 -24 32 17 34 47 18 27 57 28 36 58 61 0
-13 22 15 24 32 17 26 47 18 -35 57 28 36 58 61 0
-12 22 15 -24 32 17 26 18 35 48 57 28 36 58 61 0
-12 22 15 -24 32 17 -34 47 -27 35 48 -19 -28 36 49 -58 0
-12 22 15 -24 32 -26 34 47 18 -35 48 -19 -28 36 49 -61 0
-13 22 15 -24 17 -47 18 27 35 -48 57 19 -28 -36 -49 61 0
-12 22 15 17 26 34 47 18 -35 -48 -57 19 -28 -36 58 -61 0
-12 15 -24 32 17 26 -34 47 -27 35 48 -28 -36 49 58 -61 0
-13 24 -32 17 26 -34 47 18 -27 35 57 -28 -36 -49 58 61 0
-13 22 15 -24 17 26 34 -47 27 -48 -19 28 -36 -49 -58 -61 0
-12 22 15 -32 17 -26 18 -27 35 48 19 -28 -36 -49 -58 -61 0
-12 -24 32 26 -34 47 18 -27 35 48 -19 -28 -36 -49 -58 61 0
-12 15 -24 32 -26 34 47 27 -35 57 -19 -28 -36 49 -58 -61 0
-13 15 24 -32 26 -34 47 -27 35 57 -19 -28 -36 49 -58 -61 0
-13 22 15 -32 17 -26 18 27 -35 57 19 -28 -36 -49 -58 -61 0
-13 22 24 17 -26 -47 18 27 35 -57 -19 28 -36 -49 -58 -61 0
-12 24 -32 -26 34 47 18 -27 35 57 -19 -28 -36 -49 -58 61 0
-13 -24 32 26 -34 47 18 27 -35 57 -19 -28 -36 -49 -58 61 0
-13 22 24 17 26 34 18 -27 -48 -57 -19 28 -36 -49 -58 -61 0
-12 24 -32 17 34 -47 18 27 -48 57 -19 -28 -36 -49 58 -61 0
-13 15 32 -26 34 -47 18 27 48 -57 -19 -28 -36 -49 -58 61 0
-12 24 -32 17 26 -47 18 35 -48 57 -19 -28 -36 -49 -58 61 0
-13 -24 32 17 26 -47 18 35 -48 57 -19 -28 -36 -49 58 -61 0
-13 15 24 -32 -26 34 27 -35 48 57 -19 -28 -36 49 -58 -61 0
-12 24 -32 17 -26 34 -27 35 48 57 -19 -28 -36 -49 58 -61 0
-13 22 15 24 17 26 34 47 -27 -35 48 -19 -28 36 -49 -58 -61 0
-12 22 15 32 -26 -34 47 18 27 35 48 -19 28 -36 -49 -58 -61 0
-13 15 -24 -32 17 26 47 18 27 35 57 -19 -28 -36 49 -58 -61 0
-12 22 -24 -32 17 34 47 18 27 35 57 -19 28 -36 -49 -58 -61 0
-13 15 -24 -32 17 26 34 18 27 48 57 -19 -28 -36 49 -58 -61 0
-12 22 15 -24 32 17 26 18 35 48 57 29 37 59 62 0
-12 22 -24 32 17 -34 18 -27 35 48 57 -20 -29 37 -59 62 0
-12 -24 32 17 26 -34 18 -27 35 48 57 -29 -37 -50 59 62 0
-13 22 15 -24 17 26 34 -47 27 -48 -20 29 -37 -50 -59 -62 0
-12 -24 32 26 -34 47 18 -27 35 48 -20 -29 -37 -50 -59 62 0
-12 24 -32 17 34 -47 18 27 -48 57 -20 -29 -37 -50 59 -62 0
22 15 24 32 17 -26 -34 18 35 48 57 21 30 51 60 0
-13 22 15 24 17 -34 47 18 27 35 48 30 38 51 60 0
-12 22 15 -24 17 34 47 18 27 35 57 30 38 51 60 0
-13 22 15 24 17 26 -34 47 18 35 48 30 38 51 63 0
-12 22 15 -24 17 26 34 18 35 48 57 30 38 51 63 0
22 15 32 17 26 34 47 18 -27 -35 48 21 30 60 63 0
22 15 24 17 26 34 47 18 -27 -35 48 21 38 60 63 0
-12 22 15 24 32 17 34 47 18 -27 57 30 38 60 63 0
-13 22 15 24 -32 17 26 47 18 35 57 30 38 60 63 0
-12 22 15 24 32 17 -34 -47 18 48 -57 21 -30 -38 51 -60 0
-13 22 15 -24 17 26 34 -47 18 -48 57 21 -30 -38 -51 60 0
-13 22 15 24 -32 26 -34 47 18 -27 48 -21 30 -38 51 -63 0
-12 22 15 -24 32 -26 34 47 18 -35 48 -21 -30 38 51 -63 0
-13 22 15 24 32 17 47 18 -27 -48 -57 21 -30 -38 51 -63 0
-12 22 -24 32 17 -26 34 47 18 -35 57 -21 -30 38 60 -63 0
-13 22 15 17 26 34 47 18 -27 -48 -57 21 -30 -38 60 -63 0
-12 22 -24 32 17 -34 18 -27 35 48 57 -21 -30 38 -60 63 0
-12 22 15 17 26 34 47 27 -35 -48 -57 -21 30 -51 60 -63 0
-13 22 15 17 26 34 47 -27 35 -48 -57 -21 38 -51 60 -63 0
-12 -24 32 17 26 -34 18 -27 35 48 57 -30 -38 -51 60 63 0
-13 22 15 24 -32 17 -26 47 18 -35 21 -30 -38 -51 -60 -63 0
-12 22 15 -32 34 -47 18 27 35 -48 -21 -30 38 -51 -60 -63 0
-13 24 -32 -26 34 47 18 27 -35 48 -21 -30 -38 -51 -60 63 0
-12 22 15 24 32 17 -34 -47 35 -57 -21 -30 38 -51 -60 -63 0
-13 22 15 -32 17 -26 18 27 -35 57 21 -30 -38 -51 -60 -63 0
-13 -24 32 26 -34 47 18 27 -35 57 -21 -30 -38 -51 -60 63 0
-13 22 15 24 32 26 18 -27 -48 -57 -21 30 -38 -51 -60 -63 0
-13 22 24 17 26 34 18 -27 -48 -57 -21 30 -38 -51 -60 -63 0
-12 22 32 17 26 34 18 -35 -48 -57 -21 -30 38 -51 -60 -63 0
-12 15 24 26 -34 -47 18 35 48 -57 -21 -30 -38 -51 -60 63 0
-13 15 24 -26 34 -47 18 35 48 -57 -21 -30 -38 51 -60 -63 0
-12 15 24 17 34 47 27 -35 -48 -57 -21 -30 -38 -51 60 -63 0
-12 22 15 32 17 26 34 47 -27 -35 48 -21 30 -38 -51 -60 -63 0
-12 22 -24 -32 17 34 47 18 27 35 57 -21 30 -38 -51 -60 -63 0
-12 22 15 24 32 -26 -34 18 35 48 57 -21 30 -38 -51 -60 -63 0
-12 -13 -24 -34 -47 -19 -28 36 -49 58 -20 -29 -37 -50 -59 0
-12 -13 -24 -34 -47 -19 28 -36 49 -58 -20 -29 -37 -50 -59 0
-12 -13 15 32 34 -47 -19 -28 -36 -49 -58 -20 29 37 59 64 0
-12 -13 -32 -26 -47 -19 -28 -36 -49 -58 -21 -30 -38 51 60 0
-12 -13 -32 -26 -47 -19 -28 -36 -49 -58 -21 30 -38 -51 60 0
-12 -13 -32 -26 -47 -19 -28 -36 -49 -58 21 -30 38 -51 -60 0
-12 -13 -32 -26 -47 -19 -28 -36 -49 -58 21 30 -38 -51 -60 0
-12 -13 -32 -26 -47 -19 -28 -36 49 58 -21 -30 -38 -51 -60 0
-12 -13 -32 -26 -47 -19 28 -36 -49 58 -21 -30 -38 -51 -60 0
-12 -13 -32 -26 -47 -19 -28 36 49 -58 -21 -30 -38 -51 -60 0
-12 -13 -24 -34 -47 -19 -28 -36 -49 -58 -21 30 -38 51 -60 0
-12 -13 -24 -34 -47 -19 -28 -36 49 58 -21 -30 -38 -51 -60 0
-12 -13 -24 -34 -47 -19 28 -36 49 -58 -21 -30 -38 -51 -60 0
-12 -13 15 32 34 -47 -19 28 36 58 -21 -30 -38 -51 -60 65 0
-12 22 15 24 32 34 47 -19 28 36 -58 -21 -30 -38 -51 -60 65 0
-12 -13 -24 -35 -48 -19 -28 -36 -49 -61 -20 29 -37 50 -62 0
-12 -13 24 18 27 -48 -19 -28 -36 -49 -61 -20 29 37 50 64 0
-12 -13 -32 -27 -48 -19 -28 -36 -49 -61 -21 30 -38 -51 63 0
-12 -13 -32 -27 -48 -19 -28 -36 -49 -61 -21 -30 38 51 -63 0
-12 -13 -24 -35 -48 -19 -28 -36 -49 -61 -21 -30 38 -51 63 0
-12 -13 15 -24 32 -35 -48 -19 -28 -36 -61 -30 -51 -63 -65 0
-12 22 15 24 -32 -35 -19 -28 -36 -49 -61 21 -38 51 63 65 0
-13 22 24 18 27 35 48 -19 28 36 -49 -21 -30 -38 -51 -63 65 0
-13 22 -24 32 18 -27 35 48 -20 -29 37 62 21 -30 63 -66 0
-12 -13 24 -32 -19 -36 -49 -20 -29 50 -64 -21 -30 -38 -51 0
-12 22 16 33 17 -26 52 18 27 35 53 28 36 54 58 0
-13 22 16 25 17 -34 52 18 27 35 53 28 36 54 58 0
-13 22 16 33 17 26 52 18 27 -35 57 28 36 54 58 0
22 16 33 17 26 18 27 -35 -53 57 19 28 36 54 58 0
22 16 -25 -33 17 34 52 18 27 35 57 19 28 54 61 0
22 16 25 -33 17 34 -52 18 27 35 57 19 28 54 61 0
22 16 -25 33 17 26 -52 18 27 35 57 19 36 54 61 0
-12 22 16 33 17 -26 34 52 18 27 53 28 36 54 61 0
22 16 33 17 26 -34 -52 18 27 57 19 28 36 54 61 0
22 16 33 17 26 34 52 18 -27 -35 53 19 28 58 61 0
-12 22 16 -25 33 17 34 52 18 27 57 28 36 58 61 0
-12 22 16 25 33 17 34 52 18 -27 57 28 36 58 61 0
-12 22 16 -33 17 -26 34 52 -27 35 57 -19 -28 36 -54 58 0
-13 22 16 25 -33 26 -34 52 18 -27 53 -19 28 -36 54 -61 0
-13 22 16 -25 17 -52 18 27 35 -53 57 19 -28 -36 -54 61 0
-12 22 16 -33 17 -52 18 27 35 -53 57 19 -28 -36 -54 61 0
-13 22 25 -33 17 -26 18 27 -35 53 57 -19 28 -36 -58 61 0
-12 22 -25 33 17 -34 18 -27 35 53 57 -19 -28 36 -58 61 0
-12 22 16 17 26 34 52 27 -35 -53 -57 -19 28 -54 58 -61 0
-12 16 -25 33 17 26 -34 52 -27 35 53 -28 -36 54 58 -61 0
-13 16 25 -33 17 -26 34 52 27 -35 53 -28 -36 54 58 -61 0
-13 25 -33 17 -26 34 18 27 -35 53 57 -28 -36 -54 58 61 0
-13 22 16 25 -33 17 -34 18 -27 53 19 -28 -36 -54 -58 -61 0
-12 22 16 -25 33 17 -26 18 -35 53 19 -28 -36 -54 -58 -61 0
-12 22 16 -33 17 -26 18 -27 35 53 19 -28 -36 -54 -58 -61 0
-13 22 16 -25 26 -52 18 27 35 -53 -19 28 -36 -54 -58 -61 0
-12 22 16 -33 34 -52 18 27 35 -53 -19 -28 36 -54 -58 -61 0
-12 -25 33 26 -34 52 18 -27 35 53 -19 -28 -36 -54 -58 61 0
-13 25 -33 -26 34 52 18 27 -35 53 -19 -28 -36 -54 -58 61 0
-12 22 16 -25 17 -34 18 -27 35 57 19 -28 -36 -54 -58 -61 0
-13 22 25 17 -26 -52 18 27 35 -57 -19 28 -36 -54 -58 -61 0
-12 22 33 17 -34 -52 18 27 35 -57 -19 -28 36 -54 -58 -61 0
-12 25 -33 -26 34 52 18 -27 35 57 -19 -28 -36 -54 -58 61 0
-13 22 25 17 26 34 18 -27 -53 -57 -19 28 -36 -54 -58 -61 0
-12 25 -33 17 34 -52 18 27 -53 57 -19 -28 -36 -54 58 -61 0
-12 16 33 26 -34 -52 18 27 53 -57 -19 -28 -36 54 -58 -61 0
-12 22 16 25 33 34 18 -35 -53 -57 -19 -28 36 -54 -58 -61 0
-12 22 33 17 26 34 18 -35 -53 -57 -19 -28 36 -54 -58 -61 0
-13 16 25 -33 -26 34 27 -35 53 57 -19 -28 -36 54 -58 -61 0
-12 25 -33 17 -26 34 -27 35 53 57 -19 -28 -36 -54 58 -61 0
-12 16 33 17 26 52 27 -35 -53 -57 -19 -28 -36 54 -58 -61 0
-13 16 25 17 34 52 -27 35 -53 -57 -19 -28 -36 54 -58 -61 0
-13 22 16 25 17 26 34 52 -27 -35 53 -19 -28 36 -54 -58 -61 0
-12 22 16 33 17 26 34 52 -27 -35 53 -19 28 -36 -54 -58 -61 0
-13 16 25 17 26 34 52 18 -27 -35 53 -19 -28 -36 -54 -58 61 0
-12 16 33 17 -26 -34 52 18 27 35 53 -19 -28 -36 -54 58 -61 0
-13 16 -25 -33 17 26 52 18 27 35 57 -19 -28 -36 54 -58 -61 0
-13 22 16 25 33 -26 -34 18 27 53 57 -19 -28 36 -54 -58 -61 0
-13 16 -25 -33 17 26 34 18 27 53 57 -19 -28 -36 54 -58 -61 0
-12 22 16 25 33 -26 -34 18 35 53 57 -19 28 -36 -54 -58 -61 0
-12 22 -25 -33 17 26 34 18 35 53 57 -19 28 -36 -54 -58 -61 0
-12 16 -25 -33 17 26 34 18 35 53 57 -19 -28 -36 54 -58 -61 0
22 16 25 33 17 26 52 18 -27 -35 57 20 37 55 62 0
-13 22 25 -33 17 26 -34 52 18 -27 57 -20 29 -37 59 -62 0
-12 22 16 -33 17 26 34 -52 35 -53 -20 -29 37 -55 -59 -62 0
-12 16 -25 -33 17 34 52 18 27 35 57 -20 -29 -37 55 -59 -62 0
-12 16 -25 -33 17 26 34 18 35 53 57 -20 -29 -37 55 -59 -62 0
22 16 -25 -33 17 26 34 18 35 53 57 21 30 56 60 0
-13 22 16 25 17 -34 52 18 27 35 53 30 38 56 60 0
-12 22 16 -25 17 34 52 18 27 35 57 30 38 56 60 0
-12 22 16 25 17 34 52 18 -27 35 57 30 38 56 60 0
22 16 25 33 17 34 52 18 -27 -35 57 21 30 56 63 0
22 16 25 33 17 34 52 18 27 -35 -57 21 30 56 63 0
22 16 -25 -33 17 26 52 18 27 35 57 21 38 56 63 0
22 16 -25 33 17 26 -52 18 27 35 57 21 38 56 63 0
-12 22 16 33 17 -26 34 52 18 27 53 30 38 56 63 0
-12 22 16 33 17 26 34 52 18 -27 53 30 38 56 63 0
-12 22 16 25 17 -26 34 18 35 53 57 30 38 56 63 0
22 16 33 17 26 34 52 18 -27 -35 53 21 30 60 63 0
22 16 25 17 -26 -34 52 18 27 35 53 21 38 60 63 0
22 16 25 17 -26 34 -52 18 27 35 53 21 38 60 63 0
22 16 25 17 26 34 52 18 -27 -35 53 21 38 60 63 0
-12 22 16 -25 33 17 34 52 18 27 57 30 38 60 63 0
-12 22 16 25 33 17 34 52 18 -27 57 30 38 60 63 0
-13 22 16 25 -33 17 26 52 18 35 57 30 38 60 63 0
-13 22 16 25 33 17 26 52 18 -35 57 30 38 60 63 0
-13 22 16 25 -33 17 -26 52 27 -35 53 -21 30 -38 56 -60 0
-13 22 16 -25 17 26 -34 52 27 -35 57 -21 30 -38 -56 60 0
-12 22 16 -33 17 26 34 -52 18 -53 57 21 -30 -38 -56 60 0
-12 22 16 -33 17 -52 18 27 35 -53 57 21 -30 -38 -56 63 0
-13 22 25 -33 17 26 -34 52 18 -27 57 -21 30 -38 60 -63 0
-13 22 16 17 26 34 52 18 -27 -53 -57 21 -30 -38 60 -63 0
-12 22 16 17 -34 -52 18 27 35 53 -57 21 -30 -38 -60 63 0
-12 22 16 25 33 17 52 27 -35 -53 -57 -21 30 56 -60 -63 0
-12 22 25 -33 17 -52 18 27 35 -53 57 -21 30 -56 -60 63 0
-12 22 16 26 -34 -52 18 27 35 53 -57 -21 30 -56 -60 63 0
-13 22 16 17 26 34 52 -27 35 -53 -57 -21 38 -56 60 -63 0
-13 16 25 -33 17 -26 34 52 27 -35 53 -30 -38 56 60 -63 0
-12 22 16 -33 17 -26 34 52 18 -27 21 -30 -38 -56 -60 -63 0
-13 22 16 25 -33 17 -26 52 18 -35 21 -30 -38 -56 -60 -63 0
-12 22 16 -33 17 26 34 -52 35 -53 -21 -30 38 -56 -60 -63 0
-12 22 16 -25 33 17 -26 18 -35 53 21 -30 -38 -56 -60 -63 0
-13 22 16 -25 26 -52 18 27 35 -53 -21 30 -38 -56 -60 -63 0
-12 22 16 -33 34 -52 18 27 35 -53 -21 -30 38 -56 -60 -63 0
-13 22 16 25 33 17 -26 -52 27 -57 -21 30 -38 -56 -60 -63 0
-12 22 16 25 33 17 -34 -52 35 -57 -21 -30 38 -56 -60 -63 0
-12 22 16 -25 17 -26 34 18 -35 57 21 -30 -38 -56 -60 -63 0
-13 22 16 -33 17 -26 18 27 -35 57 21 -30 -38 -56 -60 -63 0
-12 25 -33 -26 34 52 18 -27 35 57 -21 -30 -38 -56 -60 63 0
-13 22 16 25 33 26 18 -27 -53 -57 -21 30 -38 -56 -60 -63 0
-12 25 -33 17 34 -52 18 27 -53 57 -21 -30 -38 -56 60 -63 0
-13 16 33 -26 34 -52 18 27 53 -57 -21 -30 -38 -56 -60 63 0
-12 22 16 25 33 34 18 -35 -53 -57 -21 -30 38 -56 -60 -63 0
-12 22 33 17 26 34 18 -35 -53 -57 -21 -30 38 -56 -60 -63 0
-12 25 -33 17 26 -52 18 35 -53 57 -21 -30 -38 -56 -60 63 0
-12 16 25 26 -34 -52 18 35 53 -57 -21 -30 -38 -56 -60 63 0
-12 16 -25 33 26 -34 -27 35 53 57 -21 -30 -38 56 -60 -63 0
-13 16 25 17 34 52 -27 35 -53 -57 -21 -30 -38 56 -60 -63 0
-13 16 25 17 -26 -34 52 18 27 35 53 -21 -30 -38 -56 60 -63 0
-12 16 33 17 -26 -34 52 18 27 35 53 -21 -30 -38 -56 60 -63 0
-12 22 16 25 33 17 34 52 -27 -35 57 -21 30 -38 -56 -60 -63 0
-13 22 -25 -33 17 26 52 18 27 35 57 -21 -30 38 -56 -60 -63 0
-12 -13 -33 -26 -52 -19 -28 -36 -54 -58 -20 29 -37 -55 59 0
-12 -13 -33 -26 -52 -19 -28 -36 -54 -58 -21 30 -38 -56 60 0
-12 -13 -33 -26 -52 -19 -28 -36 -54 -58 21 30 -38 -56 -60 0
-12 -13 -33 -26 -52 -19 -28 -36 54 58 -21 -30 -38 -56 -60 0
-12 -13 -25 -34 -52 -19 -28 -36 -54 -58 -21 30 -38 56 -60 0
-12 -13 -25 -34 -52 -19 -28 -36 54 58 -21 -30 -38 -56 -60 0
-12 -13 -25 -34 -52 -19 -28 36 -54 58 -21 -30 -38 -56 -60 0
-12 -13 -25 -34 -52 -19 28 -36 54 -58 -21 -30 -38 -56 -60 0
-12 -13 25 17 26 -52 -19 28 36 54 -21 -30 -38 -56 -60 65 0
-12 -13 -33 -27 -53 -19 -28 -36 -54 -61 -20 -29 -37 55 62 0
-12 -13 -33 -27 -53 -19 -28 -36 -54 -61 -20 -29 37 55 -62 0
-12 -13 -33 -27 -53 -19 -28 -36 -54 -61 20 -29 37 -55 -62 0
-12 -13 -33 -27 -53 -19 28 -36 -54 61 -20 -29 -37 -55 -62 0
-12 -13 16 33 35 -53 -19 28 36 61 -20 -29 -37 -55 -62 64 0
-12 -13 -33 -27 -53 -19 -28 -36 -54 -61 -21 -30 -38 56 63 0
-12 -13 -33 -27 -53 -19 -28 -36 -54 -61 -21 30 -38 -56 63 0
-12 -13 -33 -27 -53 -19 -28 -36 -54 -61 21 -30 38 -56 -63 0
-12 -13 -25 -35 -53 -19 -28 -36 -54 -61 -21 -30 -38 56 63 0
-12 -13 -25 -35 -53 -19 -28 36 -54 61 -21 -30 -38 -56 -63 0
-12 -13 -25 -35 -53 -19 28 -36 54 -61 -21 -30 -38 -56 -63 0
-12 -13 22 -25 27 -35 -53 -19 -28 -54 -21 -38 -56 -63 -65 0
-13 22 25 18 27 35 53 -19 28 36 -54 -21 -30 -38 -56 -63 65 0
-12 -13 -33 -27 -53 -20 -29 -37 55 62 -21 -30 -38 -56 -63 0
-12 -13 -33 18 -27 35 -53 -20 -29 -37 -55 -30 -56 -63 -66 0
-12 -13 -34 -27 -57 -19 -28 -36 58 61 -20 -29 -37 -59 -62 0
-12 -13 -34 -27 -57 -19 28 -36 -58 61 -20 -29 -37 -59 -62 0
-12 -13 -34 -27 -57 -19 -28 36 58 -61 -20 -29 -37 -59 -62 0
-12 -13 -34 -27 -57 -19 -28 -36 -58 -61 -21 -30 -38 60 63 0
-12 -13 -34 -27 -57 -19 28 -36 -58 61 -21 -30 -38 -60 -63 0
-12 -13 -26 -35 -57 -19 -28 -36 58 61 -21 -30 -38 -60 -63 0
-12 -13 -26 -35 -57 -19 28 -36 58 -61 -21 -30 -38 -60 -63 0
14 -23 15 24 16 25 46 17 26 41 52 18 -27 42 48 0
14 23 15 -24 16 25 46 17 26 41 52 18 -27 42 48 0
14 -23 15 24 16 -25 40 17 26 47 52 18 27 42 48 0
14 -23 15 24 16 25 40 17 26 47 52 18 -27 42 48 0
14 23 15 -24 39 16 25 17 -26 47 52 18 27 42 53 0
14 23 15 24 39 16 -25 17 -26 47 52 18 27 42 53 0
14 -23 15 24 39 16 25 17 26 47 52 18 -27 42 53 0
14 23 15 24 39 16 -25 17 26 47 52 18 -27 42 53 0
14 -23 15 24 16 25 40 17 -26 41 47 18 27 48 53 0
14 23 15 -24 16 25 40 17 -26 41 47 18 27 48 53 0
23 15 -24 -39 16 25 40 17 41 47 52 18 27 48 53 0
23 15 24 -39 16 25 40 17 41 -47 52 18 27 48 53 0
23 15 24 39 16 25 -40 17 41 47 -52 18 27 48 53 0
23 15 24 39 16 -25 -40 17 26 47 52 18 42 48 53 0
23 15 24 -39 16 25 40 17 26 47 52 18 42 -48 53 0
23 15 24 39 16 25 -40 17 26 47 52 18 42 48 -53 0
23 15 39 16 25 17 -26 -41 47 52 18 27 42 48 53 0
23 15 39 16 25 17 26 -41 -47 52 18 27 42 48 53 0
23 15 39 16 25 17 -26 41 47 -52 18 27 42 48 53 0
23 15 39 16 25 17 26 41 47 52 18 27 -42 -48 53 0
23 15 24 16 40 17 -26 -41 47 52 18 27 42 48 53 0
23 15 24 16 40 17 26 -41 47 -52 18 27 42 48 53 0
23 15 24 16 40 17 26 41 47 52 18 -27 -42 48 53 0
14 -23 15 24 16 -25 40 46 17 26 47 18 27 42 57 0
14 23 15 -24 16 -25 40 46 17 26 47 18 27 42 57 0
14 23 15 -24 16 25 40 46 17 -26 47 18 27 42 57 0
14 -23 15 24 16 25 40 46 17 26 47 18 -27 42 57 0
14 23 15 24 16 25 40 46 17 -26 47 18 -27 42 57 0
14 -23 15 -24 39 16 25 46 17 26 52 18 27 42 57 0
14 23 15 -24 39 16 -25 46 17 26 52 18 27 42 57 0
14 23 15 24 39 16 -25 46 17 -26 52 18 27 42 57 0
14 -23 15 24 39 16 25 46 17 26 52 18 -27 42 57 0
14 23 15 24 39 16 25 46 17 -26 52 18 -27 42 57 0
14 -23 15 -24 39 16 25 40 17 26 52 18 27 48 57 0
14 -23 15 24 39 16 -25 40 17 26 52 18 27 48 57 0
14 23 15 24 39 16 -25 40 17 -26 52 18 27 48 57 0
14 23 15 24 39 16 25 40 17 -26 52 18 -27 48 57 0
23 15 24 39 16 40 46 17 26 -41 -52 18 27 48 57 0
23 15 24 39 16 25 46 17 -26 41 -52 18 42 48 57 0
23 15 39 16 -25 -40 46 17 26 52 18 27 42 48 57 0
23 15 39 16 25 40 46 17 26 52 18 -27 -42 48 57 0
14 -23 15 -24 39 16 25 46 17 26 41 18 27 53 57 0
14 -23 15 -24 39 16 25 40 17 26 47 18 27 53 57 0
14 -23 15 24 39 16 -25 40 17 26 47 18 27 53 57 0
14 23 15 -24 39 16 25 40 17 -26 47 18 27 53 57 0
23 15 39 16 25 40 46 17 -26 -41 47 18 27 53 57 0
23 15 39 16 25 40 46 17 26 -41 -47 18 27 53 57 0
23 15 39 16 25 40 46 17 -26 41 47 18 27 53 -57 0
23 15 24 16 -25 -40 46 17 26 41 47 18 42 53 57 0
23 15 -24 -39 16 40 46 17 26 47 18 27 42 53 57 0
23 15 24 -39 16 40 -46 17 26 47 18 27 42 53 57 0
23 15 24 39 16 40 46 17 26 47 18 -27 -42 53 57 0
23 15 24 39 16 40 46 17 26 47 18 27 -42 -53 57 0
23 15 24 39 16 25 46 17 41 47 18 -27 -42 53 57 0
23 15 24 39 16 25 46 17 41 47 18 27 -42 53 -57 0
23 15 24 -39 16 25 40 17 41 -47 52 19 28 49 54 0
-12 23 15 39 16 25 46 17 -26 41 47 28 43 49 54 0
-14 23 15 24 16 -40 46 17 26 41 47 28 43 49 54 0
-14 23 15 -39 16 25 46 17 26 41 52 28 43 49 54 0
-14 23 15 24 16 25 -40 46 17 41 47 28 43 49 58 0
23 15 39 16 -25 40 46 17 26 -52 19 28 43 49 58 0
23 15 24 16 -25 -40 46 17 26 41 47 19 43 54 58 0
23 15 24 16 25 40 46 17 -26 41 -47 19 43 54 58 0
-14 23 15 24 -39 16 25 46 17 41 52 28 43 54 58 0
-12 23 15 -24 39 16 -40 46 -26 41 47 -19 -28 43 49 -54 0
-14 23 15 24 -39 25 -40 46 17 -26 47 -19 28 -43 49 -58 0
-12 23 15 24 39 16 46 17 -41 -47 -52 19 -28 -43 49 -58 0
-12 23 -24 39 16 -25 40 46 17 -41 52 -19 -28 43 54 -58 0
-14 23 15 24 39 -25 40 -46 17 47 -52 -19 43 49 -54 -58 0
-14 23 15 -25 40 -46 17 26 41 47 -52 -19 43 -49 -54 58 0
-14 24 -39 16 -25 40 17 26 -41 47 52 -28 -43 -49 54 58 0
-14 23 15 24 -39 16 -25 46 17 -41 19 -28 -43 -49 -54 -58 0
-14 23 15 -24 16 25 40 -46 26 -47 -19 28 -43 -49 -54 -58 0
-14 23 15 24 -39 16 -40 17 -26 47 19 -28 -43 -49 -54 -58 0
-12 23 15 -24 39 16 -25 17 -41 47 19 -28 -43 -49 -54 -58 0
-14 23 15 -24 16 -40 17 26 -41 47 19 -28 -43 -49 -54 -58 0
-12 23 15 24 39 16 -40 -46 41 -52 -19 -28 43 -49 -54 -58 0
-12 15 -24 39 -25 40 46 26 -41 52 -19 -28 -43 49 -54 -58 0
-14 23 15 -39 16 -25 17 26 -41 52 19 -28 -43 -49 -54 -58 0
-14 -24 39 16 40 -46 17 26 -47 52 -19 -28 -43 -49 -54 58 0
-12 23 15 24 39 40 17 -41 -47 -52 -19 -28 43 -49 -54 -58 0
-12 24 -39 16 25 -46 17 41 -47 52 -19 -28 -43 -49 -54 58 0
-12 15 -24 39 25 -40 -26 41 47 52 -19 -28 -43 49 -54 -58 0
-12 24 -39 16 -25 40 -26 41 47 52 -19 -28 -43 -49 54 -58 0
-14 15 24 16 40 46 -26 41 -47 -52 -19 -28 -43 49 -54 -58 0
-14 15 24 16 25 40 46 17 -26 -41 47 -19 -28 -43 -49 -54 58 0
-14 23 15 24 39 -25 -40 17 26 47 52 -19 -28 43 -49 -54 -58 0
-14 15 24 39 16 -25 -40 17 26 47 52 -19 -28 -43 -49 54 -58 0
-14 15 -24 -39 16 25 40 17 26 47 52 -19 -28 -43 49 -54 -58 0
23 15 24 39 16 40 46 17 -26 -41 52 20 29 50 59 0
-12 23 15 24 39 16 40 46 17 -26 52 29 44 55 59 0
-14 23 15 24 -39 16 40 17 26 47 52 29 44 55 59 0
-14 23 15 24 39 16 -40 17 26 47 52 29 44 55 59 0
-14 23 -24 39 16 25 40 -46 17 -47 52 -20 44 -50 55 -59 0
-14 23 15 -24 16 25 40 -46 26 -47 -20 29 -44 -50 -55 -59 0
23 15 -24 -39 16 25 40 17 41 47 52 21 30 51 56 0
23 15 24 39 16 25 -40 17 41 47 -52 21 30 51 56 0
-12 23 15 39 16 25 46 17 -26 41 47 30 45 51 56 0
-14 23 15 24 16 40 46 17 26 -41 47 30 45 51 56 0
-14 23 15 39 16 25 46 17 26 -41 52 30 45 51 56 0
-12 23 15 24 16 40 46 17 -26 41 52 30 45 51 56 0
23 15 24 16 40 17 -26 -41 47 52 21 30 45 51 56 0
23 15 24 -39 16 40 -46 17 26 41 52 21 30 51 60 0
23 15 24 39 16 40 46 17 26 -41 -52 21 30 51 60 0
23 15 -24 39 16 25 -46 17 26 41 52 21 45 51 60 0
23 15 24 39 16 25 46 17 -26 -41 52 21 45 51 60 0
-14 23 15 24 16 25 -40 46 17 41 47 30 45 51 60 0
23 15 39 16 25 -40 -46 17 26 41 47 21 30 56 60 0
23 15 39 16 25 40 46 17 -26 -41 47 21 30 56 60 0
23 15 24 16 -25 -40 46 17 26 41 47 21 45 56 60 0
-14 23 15 24 -39 16 25 46 17 41 52 30 45 56 60 0
-14 23 15 24 39 16 25 46 17 -41 52 30 45 56 60 0
-14 23 15 24 -39 16 -25 46 26 -41 47 -21 30 -45 51 -56 0
-14 23 15 -24 16 25 -40 46 26 -41 52 -21 30 -45 -51 56 0
-12 23 15 -39 16 -25 40 46 -26 41 52 -21 -30 45 -51 56 0
-12 23 15 24 39 16 -40 -46 17 47 -52 21 -30 -45 51 -56 0
-14 23 15 -24 16 25 40 -46 17 -47 52 21 -30 -45 -51 56 0
-14 23 15 24 -39 25 -40 46 17 -26 47 -21 30 -45 51 -60 0
-12 23 15 -24 39 -25 40 46 17 -41 47 -21 -30 45 51 -60 0
-14 23 15 24 39 16 46 17 -26 -47 -52 21 -30 -45 51 -60 0
-12 23 15 24 39 16 46 17 -41 -47 -52 21 -30 -45 51 -60 0
-14 23 15 -24 16 -46 17 26 41 -47 52 21 -30 -45 -51 60 0
-14 23 24 -39 16 25 -40 46 17 -26 52 -21 30 -45 56 -60 0
-12 23 -24 39 16 -25 40 46 17 -41 52 -21 -30 45 56 -60 0
-14 23 15 16 -25 -46 17 26 41 47 -52 21 -30 -45 -56 60 0
-12 23 15 24 39 25 -40 -46 17 47 -52 -21 30 51 -56 -60 0
-12 23 15 24 39 16 46 26 -41 -47 -52 -21 30 51 -56 -60 0
-12 23 15 16 25 40 46 26 -41 -47 -52 -21 30 -51 56 -60 0
-12 23 24 -39 16 -46 17 26 41 -47 52 -21 30 -51 -56 60 0
-14 23 15 24 39 16 46 -26 41 -47 -52 -21 45 51 -56 -60 0
-14 23 -24 39 16 -46 17 26 41 -47 52 -21 45 -51 -56 60 0
-12 15 -24 39 16 25 -40 46 -26 41 47 -30 -45 51 56 -60 0
-12 15 -24 39 -25 40 46 17 26 -41 47 -30 -45 51 -56 60 0
-12 -24 39 16 -25 40 46 17 26 -41 52 -30 -45 -51 56 60 0
-14 23 15 -24 16 25 40 -46 26 -47 -21 30 -45 -51 -56 -60 0
-14 23 15 -24 25 -46 17 26 41 -47 -21 30 -45 -51 -56 -60 0
-12 -24 39 25 -40 46 17 -26 41 47 -21 -30 -45 -51 -56 60 0
-12 23 15 -24 16 -25 40 17 -41 52 21 -30 -45 -51 -56 -60 0
-14 15 24 -39 25 -40 46 -26 41 52 -21 -30 -45 51 -56 -60 0
-14 23 15 -39 16 -25 17 26 -41 52 21 -30 -45 -51 -56 -60 0
-12 24 -39 -25 40 46 17 -26 41 52 -21 -30 -45 -51 -56 60 0
-14 23 15 24 39 25 17 -26 -47 -52 -21 30 -45 -51 -56 -60 0
-12 24 -39 16 40 -46 17 26 -47 52 -21 -30 -45 -51 56 -60 0
-12 23 15 24 39 40 17 -41 -47 -52 -21 -30 45 -51 -56 -60 0
-14 -24 39 16 25 -46 17 41 -47 52 -21 -30 -45 -51 56 -60 0
-12 15 24 25 -40 -46 17 41 47 -52 -21 -30 -45 -51 -56 60 0
-12 15 39 16 25 46 26 -41 -47 -52 -21 -30 -45 51 -56 -60 0
-14 15 39 16 25 46 -26 41 -47 -52 -21 -30 -45 -51 56 -60 0
-14 15 24 16 40 46 -26 41 -47 -52 -21 -30 -45 51 -56 -60 0
-12 15 39 16 -25 -40 46 17 26 41 47 -21 -30 -45 -51 56 -60 0
-12 23 -24 -39 16 40 46 17 26 41 52 -21 30 -45 -51 -56 -60 0
-12 15 -24 -39 16 25 40 17 41 47 52 -21 -30 -45 51 -56 -60 0
-14 23 15 24 16 40 46 18 27 -42 48 28 43 49 54 0
-12 23 15 39 16 -25 40 46 18 27 48 28 43 49 61 0
-12 23 15 -24 16 25 40 18 42 48 53 28 43 49 61 0
23 15 39 16 25 40 46 18 -27 -42 48 19 28 54 61 0
-12 23 15 -24 39 16 40 46 18 27 53 28 43 54 61 0
-12 23 15 -24 39 16 25 18 42 48 53 28 43 54 61 0
-14 23 15 24 -39 16 -25 46 27 -42 48 -19 28 -43 49 -54 0
-14 23 15 -24 16 25 -40 46 27 -42 53 -19 28 -43 -49 54 0
-12 23 15 -39 16 -25 40 46 -27 42 53 -19 -28 43 -49 54 0
-12 23 15 -24 39 -25 40 46 18 -42 48 -19 -28 43 49 -61 0
-14 23 15 24 39 16 46 18 -27 -48 -53 19 -28 -43 49 -61 0
-12 23 15 24 39 16 46 18 -42 -48 -53 19 -28 -43 49 -61 0
-14 23 15 -24 16 -46 18 27 42 -48 53 19 -28 -43 -49 61 0
-12 23 15 -39 16 -46 18 27 42 -48 53 19 -28 -43 -49 61 0
-12 23 -24 39 16 -25 40 46 18 -42 53 -19 -28 43 54 -61 0
-12 23 -24 39 16 -40 18 -27 42 48 53 -19 -28 43 -54 61 0
-14 23 15 24 39 -25 40 -46 18 48 -53 -19 43 49 -54 -61 0
-14 15 -24 39 16 25 -40 46 27 -42 53 -28 -43 49 54 -61 0
-14 24 -39 16 25 -40 46 18 -27 42 53 -28 -43 -49 54 61 0
-12 23 15 -24 39 16 -40 46 18 -27 19 -28 -43 -49 -54 -61 0
-12 23 15 -39 16 25 40 -46 42 -48 -19 -28 43 -49 -54 -61 0
-12 23 15 -39 16 -25 18 -27 42 48 19 -28 -43 -49 -54 -61 0
-14 23 15 -24 25 -46 18 27 42 -48 -19 28 -43 -49 -54 -61 0
-14 23 15 -39 16 25 -40 18 -27 53 19 -28 -43 -49 -54 -61 0
-12 23 15 -24 16 -25 40 18 -42 53 19 -28 -43 -49 -54 -61 0
-12 15 -24 39 -25 40 46 27 -42 53 -19 -28 -43 49 -54 -61 0
-12 23 15 -24 16 -40 18 -27 42 53 19 -28 -43 -49 -54 -61 0
-14 -24 39 25 -40 46 18 27 -42 53 -19 -28 -43 -49 -54 61 0
-14 23 24 16 25 40 18 -27 -48 -53 -19 28 -43 -49 -54 -61 0
-12 23 15 24 39 40 18 -42 -48 -53 -19 -28 43 -49 -54 -61 0
-12 23 39 16 25 40 18 -42 -48 -53 -19 -28 43 -49 -54 -61 0
-12 15 24 25 -40 -46 18 42 48 -53 -19 -28 -43 -49 -54 61 0
-14 -24 39 16 25 -40 27 -42 48 53 -19 -28 -43 -49 54 -61 0
-12 23 -24 -39 16 40 46 18 27 42 53 -19 28 -43 -49 -54 -61 0
-14 23 15 24 39 -25 -40 18 27 48 53 -19 -28 43 -49 -54 -61 0
-12 23 -24 -39 16 25 40 18 42 48 53 -19 28 -43 -49 -54 -61 0
-14 23 15 -39 16 25 46 18 27 42 53 29 44 50 55 0
-12 23 15 39 16 -25 40 46 18 27 48 29 44 50 62 0
-12 23 15 -39 16 -25 40 46 -27 42 53 -20 -29 44 -50 55 0
-14 23 15 -39 16 25 -40 18 -27 53 20 -29 -44 -50 -55 -62 0
-14 15 24 -39 25 -40 46 -27 42 53 -20 -29 -44 50 -55 -62 0
23 15 24 -39 16 25 40 18 42 -48 53 21 30 51 56 0
23 15 24 39 16 -25 -40 18 27 48 53 21 45 51 56 0
-12 23 15 39 16 -25 46 18 27 42 48 30 45 51 56 0
-12 23 15 39 16 25 46 18 -27 42 48 30 45 51 56 0
-14 23 15 -39 16 25 46 18 27 42 53 30 45 51 56 0
23 15 24 39 16 40 46 18 27 -42 -53 21 30 51 63 0
23 15 24 39 16 25 46 18 -27 42 -53 21 45 51 63 0
-12 23 15 39 16 -25 40 46 18 27 48 30 45 51 63 0
-14 23 15 24 16 25 -40 46 18 42 48 30 45 51 63 0
-14 23 15 24 16 25 40 46 18 -42 48 30 45 51 63 0
23 15 39 16 -25 -40 46 18 27 42 48 21 30 56 63 0
23 15 39 16 25 40 46 18 -27 -42 48 21 30 56 63 0
23 15 39 16 25 40 46 18 27 -42 -48 21 30 56 63 0
23 15 24 16 25 40 46 18 -27 -42 48 21 45 56 63 0
23 15 24 16 25 40 46 18 -27 42 -48 21 45 56 63 0
-14 23 15 24 39 16 25 46 18 -42 53 30 45 56 63 0
-12 23 15 -24 39 16 25 18 42 48 53 30 45 56 63 0
-14 23 15 24 39 16 46 18 -27 -48 -53 21 -30 -45 51 -63 0
-14 23 15 -24 25 -40 18 27 -42 48 53 -21 30 -45 -51 63 0
-12 23 15 -39 -25 40 18 -27 42 48 53 -21 -30 45 -51 63 0
-14 23 15 -24 16 -46 18 27 42 -48 53 21 -30 -45 -51 63 0
-12 23 -24 39 16 -25 40 46 18 -42 53 -21 -30 45 56 -63 0
-14 23 24 -39 16 -25 18 27 -42 48 53 -21 30 -45 -56 63 0
-12 23 -24 39 16 -40 18 -27 42 48 53 -21 -30 45 -56 63 0
-14 23 15 16 -25 -46 18 27 42 48 -53 21 -30 -45 -56 63 0
-14 23 15 24 39 16 46 -27 42 -48 -53 -21 45 51 -56 -63 0
-14 23 15 -25 40 -46 18 27 42 48 -53 -21 45 -51 -56 63 0
-12 15 24 -39 16 -25 40 46 -27 42 53 -30 -45 51 56 -63 0
-14 24 -39 16 -25 40 18 27 -42 48 53 -30 -45 -51 56 63 0
-14 23 15 24 -39 16 -25 46 18 -42 21 -30 -45 -51 -56 -63 0
-14 23 15 -24 16 25 -40 46 18 -42 21 -30 -45 -51 -56 -63 0
-12 23 15 -24 39 16 -25 18 -42 48 21 -30 -45 -51 -56 -63 0
-14 23 15 -24 25 -46 18 27 42 -48 -21 30 -45 -51 -56 -63 0
-12 23 15 -39 40 -46 18 27 42 -48 -21 -30 45 -51 -56 -63 0
-12 -24 39 25 -40 46 18 -27 42 48 -21 -30 -45 -51 -56 63 0
-14 24 -39 -25 40 46 18 27 -42 48 -21 -30 -45 -51 -56 63 0
-12 23 15 24 39 16 -40 -46 42 -53 -21 -30 45 -51 -56 -63 0
-14 23 15 -39 16 -25 18 27 -42 53 21 -30 -45 -51 -56 -63 0
-12 23 15 -24 16 -40 18 -27 42 53 21 -30 -45 -51 -56 -63 0
-14 23 24 16 -25 -46 18 27 42 -53 -21 30 -45 -51 -56 -63 0
-14 23 15 24 39 25 18 -27 -48 -53 -21 30 -45 -51 -56 -63 0
-14 23 24 16 25 40 18 -27 -48 -53 -21 30 -45 -51 -56 -63 0
-12 24 -39 16 40 -46 18 27 -48 53 -21 -30 -45 -51 56 -63 0
-12 23 15 24 39 40 18 -42 -48 -53 -21 -30 45 -51 -56 -63 0
-14 15 24 -25 40 -46 18 42 48 -53 -21 -30 -45 51 -56 -63 0
-14 23 15 24 39 16 25 46 -27 -42 53 -21 -30 45 -51 -56 -63 0
-12 23 15 24 39 16 40 46 -27 -42 53 -21 30 -45 -51 -56 -63 0
-14 15 -24 -39 16 25 40 18 27 48 53 -21 -30 -45 51 -56 -63 0
-12 -14 15 24 25 -46 -19 -28 -43 -49 -54 -20 29 44 55 64 0
-12 23 15 24 39 40 46 -19 -28 -43 -49 -54 -20 29 44 -55 64 0
-12 -14 -39 -25 -46 -19 28 -43 -49 54 -21 -30 -45 -51 -56 0
-12 -14 -24 -40 -46 -19 -28 -43 -49 -54 -21 30 -45 51 -56 0
-12 -14 -24 -40 -46 -19 -28 -43 49 54 -21 -30 -45 -51 -56 0
-12 -14 23 24 -39 -25 -46 -19 -28 -54 -21 -45 -51 -56 -65 0
-14 15 39 16 -25 -46 28 43 49 -54 -21 -30 -45 -51 -56 65 0
-12 23 39 16 25 40 46 -20 29 44 -50 -21 -30 -45 -51 -56 66 0
23 15 -24 -39 17 26 41 18 42 48 57 19 28 49 58 0
23 15 24 39 17 -26 -41 18 42 48 57 19 28 49 58 0
23 15 -24 -39 17 26 41 18 27 48 57 19 43 49 58 0
23 15 39 17 26 18 27 42 48 57 19 -28 -43 49 58 0
23 15 24 -39 17 41 -47 18 27 42 57 19 28 49 61 0
23 15 24 39 17 26 47 18 -27 42 -57 19 43 49 61 0
-12 23 15 39 17 -26 41 47 18 27 48 28 43 49 61 0
-14 23 15 24 17 26 -41 47 18 42 48 28 43 49 61 0
-14 23 15 24 17 26 41 47 18 -42 48 28 43 49 61 0
-12 23 15 -24 39 17 26 18 42 48 57 28 43 58 61 0
-14 23 15 -24 17 26 -41 47 27 -42 57 -19 28 -43 -49 58 0
-14 23 15 24 39 17 -26 -47 18 48 -57 19 -28 -43 49 -58 0
-12 23 15 24 39 17 -41 -47 18 48 -57 19 -28 -43 49 -58 0
-12 23 15 -39 17 26 41 -47 18 -48 57 19 -28 -43 -49 58 0
-12 23 15 -24 39 -26 41 47 18 -42 48 -19 -28 43 49 -61 0
-14 23 15 24 39 17 47 18 -27 -48 -57 19 -28 -43 49 -61 0
-14 23 24 -39 17 26 -41 47 18 -27 57 -19 28 -43 58 -61 0
-12 23 -24 39 17 -41 18 -27 42 48 57 -19 -28 43 -58 61 0
-14 23 15 17 26 41 47 -27 42 -48 -57 -19 43 -49 58 -61 0
-12 15 -24 39 17 26 -41 47 -27 42 48 -28 -43 49 58 -61 0
-12 -24 39 17 26 -41 18 -27 42 48 57 -28 -43 -49 58 61 0
-14 23 15 24 -39 17 -41 18 -27 48 19 -28 -43 -49 -58 -61 0
-14 23 15 -24 17 -41 18 27 -42 48 19 -28 -43 -49 -58 -61 0
-14 23 15 -24 26 -47 18 27 42 -48 -19 28 -43 -49 -58 -61 0
-12 23 15 -39 41 -47 18 27 42 -48 -19 -28 43 -49 -58 -61 0
-14 23 15 -39 17 26 -41 18 -27 57 19 -28 -43 -49 -58 -61 0
-12 23 15 24 39 17 -41 -47 42 -57 -19 -28 43 -49 -58 -61 0
-12 23 15 -24 17 -41 18 -27 42 57 19 -28 -43 -49 -58 -61 0
-14 -24 39 26 -41 47 18 27 -42 57 -19 -28 -43 -49 -58 61 0
-14 23 15 24 39 26 18 -27 -48 -57 -19 28 -43 -49 -58 -61 0
-12 24 -39 17 41 -47 18 27 -48 57 -19 -28 -43 -49 58 -61 0
-14 -24 39 17 26 -47 18 42 -48 57 -19 -28 -43 -49 58 -61 0
-14 -24 39 17 26 -41 27 -42 48 57 -19 -28 -43 -49 58 -61 0
-14 15 39 17 26 47 -27 42 -48 -57 -19 -28 -43 -49 58 -61 0
-14 15 24 17 41 47 -27 42 -48 -57 -19 -28 -43 49 -58 -61 0
-12 23 15 39 17 26 41 47 -27 -42 48 -19 28 -43 -49 -58 -61 0
-12 23 15 39 -26 -41 47 18 27 42 48 -19 28 -43 -49 -58 -61 0
-14 23 15 24 39 17 26 47 -27 -42 57 -19 -28 43 -49 -58 -61 0
-14 15 24 39 17 26 47 18 -27 -42 57 -19 -28 -43 -49 -58 61 0
-14 23 15 24 39 -26 -41 18 27 48 57 -19 -28 43 -49 -58 -61 0
-12 23 15 24 39 -26 -41 18 42 48 57 -19 28 -43 -49 -58 -61 0
-12 15 -24 -39 17 26 41 18 42 48 57 -19 -28 -43 49 -58 -61 0
-12 23 15 -24 39 17 41 47 18 27 57 29 44 59 62 0
-12 23 15 -24 39 17 -41 47 -27 42 48 -20 -29 44 50 -59 0
-12 23 -24 39 17 -41 18 -27 42 48 57 -20 -29 44 -59 62 0
-12 23 15 -24 17 -41 18 -27 42 57 20 -29 -44 -50 -59 -62 0
23 15 24 -39 17 26 41 18 42 -48 57 21 30 51 60 0
23 15 -24 -39 17 26 41 18 27 48 57 21 45 51 60 0
23 15 -24 39 17 26 41 18 27 -48 57 21 45 51 60 0
-14 23 15 24 17 41 47 18 27 -42 48 30 45 51 60 0
-12 23 15 -24 17 41 47 18 27 42 57 30 45 51 60 0
23 15 -24 -39 17 41 47 18 27 42 57 21 30 51 63 0
-12 23 15 39 17 -26 41 47 18 27 48 30 45 51 63 0
-14 23 15 24 17 26 -41 47 18 42 48 30 45 51 63 0
-12 23 15 -24 17 26 41 18 42 48 57 30 45 51 63 0
23 15 24 17 -26 41 -47 18 27 42 48 21 45 60 63 0
-12 23 15 24 39 17 41 47 18 -27 57 30 45 60 63 0
-14 23 15 24 39 17 26 47 18 -42 57 30 45 60 63 0
-14 23 15 -24 17 26 -41 47 27 -42 57 -21 30 -45 -51 60 0
-12 23 15 -39 17 -26 41 47 -27 42 57 -21 -30 45 -51 60 0
-12 23 15 24 39 17 -41 -47 18 48 -57 21 -30 -45 51 -60 0
-12 23 15 -39 17 26 41 -47 18 -48 57 21 -30 -45 -51 60 0
-14 23 15 24 -39 26 -41 47 18 -27 48 -21 30 -45 51 -63 0
-14 23 15 24 39 -26 41 -47 18 48 -57 -21 45 51 -60 -63 0
-14 23 -24 39 17 26 41 -47 18 -48 57 -21 45 -51 60 -63 0
-14 15 24 -39 17 -26 41 47 27 -42 48 -30 -45 51 60 -63 0
-14 23 15 -24 17 26 -41 47 18 -42 21 -30 -45 -51 -60 -63 0
-12 23 15 -24 39 17 -26 18 -42 48 21 -30 -45 -51 -60 -63 0
-14 24 -39 17 26 -41 47 -27 42 48 -21 -30 -45 -51 60 -63 0
-12 23 15 -39 17 -26 18 -27 42 48 21 -30 -45 -51 -60 -63 0
-14 23 15 -24 17 -41 18 27 -42 48 21 -30 -45 -51 -60 -63 0
-12 23 15 24 39 17 -41 -47 42 -57 -21 -30 45 -51 -60 -63 0
-14 15 24 -39 26 -41 47 -27 42 57 -21 -30 -45 51 -60 -63 0
-14 23 15 -39 17 -26 18 27 -42 57 21 -30 -45 -51 -60 -63 0
-12 15 39 26 -41 -47 18 27 48 -57 -21 -30 -45 51 -60 -63 0
-14 15 39 -26 41 -47 18 27 48 -57 -21 -30 -45 -51 -60 63 0
-12 23 39 17 26 41 18 -42 -48 -57 -21 -30 45 -51 -60 -63 0
-14 15 24 -39 -26 41 27 -42 48 57 -21 -30 -45 51 -60 -63 0
-14 -24 39 17 26 -41 27 -42 48 57 -21 -30 -45 -51 60 -63 0
-14 23 15 24 -26 -41 47 18 27 42 48 -21 -30 45 -51 -60 -63 0
-14 15 24 17 -26 -41 47 18 27 42 48 -21 -30 -45 -51 60 -63 0
-12 15 39 17 -26 -41 47 18 27 42 48 -21 -30 -45 -51 60 -63 0
-14 23 -24 -39 17 26 47 18 27 42 57 -21 -30 45 -51 -60 -63 0
-12 15 24 39 17 41 47 18 -27 -42 57 -21 -30 -45 -51 -60 63 0
-14 23 15 24 39 -26 -41 18 27 48 57 -21 -30 45 -51 -60 -63 0
-12 -14 -39 -26 -47 -19 -28 -43 -49 -58 -20 -29 -44 50 59 0
-12 -14 39 17 41 -47 -19 -28 -43 -49 -58 -20 29 44 50 64 0
-12 -14 -39 -26 -47 -19 -28 -43 -49 -58 -21 -30 -45 51 60 0
-12 -14 -39 -26 -47 -19 -28 -43 -49 -58 -21 30 -45 -51 60 0
-12 -14 -39 -26 -47 -19 -28 -43 -49 -58 -21 -30 45 51 -60 0
-12 -14 -39 -26 -47 -19 -28 -43 -49 -58 21 -30 45 -51 -60 0
-12 -14 -39 -26 -47 -19 -28 -43 -49 -58 21 30 -45 -51 -60 0
-12 -14 -39 -26 -47 -19 -28 -43 49 58 -21 -30 -45 -51 -60 0
-12 -14 -39 -26 -47 -19 28 -43 -49 58 -21 -30 -45 -51 -60 0
-12 -14 -24 -41 -47 -19 -28 -43 -49 -58 -21 -30 -45 51 60 0
-12 -14 -24 -41 -47 -19 -28 -43 -49 -58 -21 -30 45 -51 60 0
-12 -14 -24 -41 -47 -19 -28 -43 -49 -58 -21 30 -45 51 -60 0
-12 -14 -24 -41 -47 -19 -28 -43 -49 -58 21 -30 45 -51 -60 0
-12 -14 24 17 26 -47 -19 -28 -43 -49 -58 -21 30 45 51 65 0
-12 -14 -39 -27 -48 -19 -28 -43 -49 -61 -20 -29 44 50 -62 0
-12 -14 -39 -27 -48 -19 -28 -43 -49 -61 21 30 -45 -51 -63 0
-12 -14 -39 -27 -48 -19 28 -43 -49 61 -21 -30 -45 -51 -63 0
-12 -14 -24 -42 -48 -19 -28 -43 -49 -61 -21 -30 45 -51 63 0
-12 -14 -24 -42 -48 -19 -28 -43 -49 -61 -21 30 -45 51 -63 0
-12 -14 -24 -42 -48 -19 -28 43 -49 61 -21 -30 -45 -51 -63 0
-12 -14 23 -24 27 -42 -48 -19 -43 -49 -61 -21 -30 -51 -65 0
-12 15 24 27 -42 -48 -19 -28 -43 -49 -61 21 45 51 -63 65 0
-12 23 39 18 27 42 48 -19 28 43 -49 -21 -30 -45 -51 -63 65 0
-12 23 15 24 39 42 48 -19 28 43 -61 -21 -30 -45 -51 -63 65 0
-12 -14 -24 -39 -19 -28 -43 -49 -20 -29 50 -21 -45 51 -66 0
23 16 25 40 17 -26 -41 18 42 53 57 19 28 54 58 0
23 16 25 -40 17 26 41 18 42 -53 57 19 28 54 58 0
23 16 25 40 17 26 -41 18 42 53 -57 19 28 54 58 0
-14 23 16 40 17 26 52 18 27 -42 57 28 43 54 58 0
23 16 40 17 26 -41 -52 18 27 57 19 28 43 54 61 0
23 16 40 17 26 -41 -52 18 27 42 53 19 28 58 61 0
-12 23 16 25 40 17 41 52 18 -27 57 28 43 58 61 0
-14 23 16 25 -40 17 41 18 27 53 57 28 43 58 61 0
-12 23 25 40 17 26 52 18 -27 42 19 43 54 58 61 0
-14 23 16 -25 17 26 -41 52 27 -42 57 -19 28 -43 -54 58 0
-12 23 16 -40 17 26 41 -52 18 -53 57 19 -28 -43 -54 58 0
-14 23 16 25 -40 26 -41 52 18 -27 53 -19 28 -43 54 -61 0
-14 23 16 -25 17 -52 18 27 42 -53 57 19 -28 -43 -54 61 0
-12 23 16 -40 17 -52 18 27 42 -53 57 19 -28 -43 -54 61 0
-14 23 25 -40 17 26 -41 52 18 -27 57 -19 28 -43 58 -61 0
-14 23 16 17 26 41 52 18 -27 -53 -57 19 -28 -43 58 -61 0
-12 23 -25 40 17 -41 18 -27 42 53 57 -19 -28 43 -58 61 0
-12 23 16 25 40 26 -41 -52 18 53 -57 -19 28 54 -58 -61 0
-12 23 16 17 26 41 52 27 -42 -53 -57 -19 28 -54 58 -61 0
-12 23 25 -40 17 -52 18 27 42 -53 57 -19 28 -54 -58 61 0
-14 23 -25 40 17 -52 18 27 42 -53 57 -19 43 -54 -58 61 0
-12 16 -25 40 17 26 -41 52 -27 42 53 -28 -43 54 58 -61 0
-14 16 25 -40 26 -41 52 18 -27 42 53 -28 -43 54 -58 61 0
-14 16 -25 40 26 -41 18 27 -42 53 57 -28 -43 54 -58 61 0
-12 -25 40 17 26 -41 18 -27 42 53 57 -28 -43 -54 58 61 0
-14 23 16 -25 26 -52 18 27 42 -53 -19 28 -43 -54 -58 -61 0
-12 -25 40 26 -41 52 18 -27 42 53 -19 -28 -43 -54 -58 61 0
-14 23 16 25 40 17 -26 -52 27 -57 -19 28 -43 -54 -58 -61 0
-12 23 16 25 40 17 -41 -52 42 -57 -19 -28 43 -54 -58 -61 0
-12 23 16 -25 17 -41 18 -27 42 57 19 -28 -43 -54 -58 -61 0
-12 23 40 17 -41 -52 18 27 42 -57 -19 -28 43 -54 -58 -61 0
-12 25 -40 -26 41 52 18 -27 42 57 -19 -28 -43 -54 -58 61 0
-14 -25 40 26 -41 52 18 27 -42 57 -19 -28 -43 -54 -58 61 0
-14 23 16 25 40 26 18 -27 -53 -57 -19 28 -43 -54 -58 -61 0
-14 23 25 17 26 41 18 -27 -53 -57 -19 28 -43 -54 -58 -61 0
-12 16 40 26 -41 -52 18 27 53 -57 -19 -28 -43 54 -58 -61 0
-14 -25 40 17 26 -52 18 42 -53 57 -19 -28 -43 -54 58 -61 0
-12 16 25 26 -41 -52 18 42 53 -57 -19 -28 -43 -54 -58 61 0
-14 16 25 -26 41 -52 18 42 53 -57 -19 -28 -43 54 -58 -61 0
-12 16 -25 40 26 -41 -27 42 53 57 -19 -28 -43 54 -58 -61 0
-12 25 -40 17 -26 41 -27 42 53 57 -19 -28 -43 -54 58 -61 0
-12 23 16 40 -26 -41 52 18 27 42 53 -19 28 -43 -54 -58 -61 0
-14 23 -25 -40 17 26 52 18 27 42 57 -19 -28 43 -54 -58 -61 0
-14 16 25 40 17 26 52 18 -27 -42 57 -19 -28 -43 -54 -58 61 0
-12 23 -25 -40 17 41 52 18 27 42 57 -19 28 -43 -54 -58 -61 0
-12 16 -25 -40 17 41 52 18 27 42 57 -19 -28 -43 54 -58 -61 0
-14 16 25 40 17 -26 -41 18 27 53 57 -19 -28 -43 -54 58 -61 0
-12 23 16 25 40 -26 -41 18 42 53 57 -19 28 -43 -54 -58 -61 0
-12 23 -25 -40 17 26 41 18 42 53 57 -19 28 -43 -54 -58 -61 0
-12 16 -25 -40 17 26 41 18 42 53 57 -19 -28 -43 54 -58 -61 0
-14 23 16 -40 17 26 52 18 27 42 57 29 44 55 59 0
23 16 25 40 17 26 52 18 -27 -42 57 20 44 55 62 0
23 16 25 40 17 26 52 18 -27 42 -57 20 44 55 62 0
-12 23 16 -40 -26 41 18 -27 42 53 57 -20 -29 44 -55 62 0
-14 23 16 25 40 17 26 52 -27 -42 57 -20 -29 44 -55 -59 -62 0
-14 16 25 40 17 26 52 18 -27 -42 57 -20 -29 -44 -55 -59 62 0
23 16 25 40 17 -26 -41 18 42 53 57 21 30 56 60 0
23 16 25 -40 17 26 41 18 42 -53 57 21 30 56 60 0
23 16 -25 -40 17 26 41 18 27 53 57 21 45 56 60 0
23 16 25 40 17 -26 -41 18 27 53 57 21 45 56 60 0
-12 23 16 40 17 26 52 18 -27 42 53 30 45 56 60 0
-14 23 16 25 17 41 52 18 27 -42 53 30 45 56 60 0
-14 23 16 40 17 26 52 18 27 -42 57 30 45 56 60 0
-12 23 16 -25 17 41 52 18 27 42 57 30 45 56 60 0
23 16 -25 -40 17 41 52 18 27 42 57 21 30 56 63 0
23 16 -25 -40 17 26 52 18 27 42 57 21 45 56 63 0
23 16 -25 40 17 26 -52 18 27 42 57 21 45 56 63 0
-14 23 16 25 17 26 41 52 18 -42 53 30 45 56 63 0
-14 23 16 -40 17 26 41 18 27 53 57 30 45 56 63 0
-12 23 16 -25 17 26 41 18 42 53 57 30 45 56 63 0
23 16 40 17 -26 -41 52 18 27 42 53 21 30 60 63 0
23 16 40 17 26 -41 -52 18 27 42 53 21 30 60 63 0
23 16 40 17 26 41 52 18 -27 -42 53 21 30 60 63 0
23 16 25 17 -26 -41 52 18 27 42 53 21 45 60 63 0
-12 23 16 -25 40 17 41 52 18 27 57 30 45 60 63 0
-12 23 16 25 40 17 41 52 18 -27 57 30 45 60 63 0
-14 23 16 -25 17 26 -41 52 27 -42 57 -21 30 -45 -56 60 0
-12 23 16 -40 17 -26 41 52 -27 42 57 -21 -30 45 -56 60 0
-14 23 16 25 40 17 -26 -52 18 53 -57 21 -30 -45 56 -60 0
-12 23 16 25 40 17 -41 -52 18 53 -57 21 -30 -45 56 -60 0
-14 23 16 25 -40 26 -41 52 18 -27 53 -21 30 -45 56 -63 0
-12 23 16 -25 40 -26 41 52 18 -42 53 -21 -30 45 56 -63 0
-14 23 16 -25 17 -52 18 27 42 -53 57 21 -30 -45 -56 63 0
-14 23 16 17 26 41 52 18 -27 -53 -57 21 -30 -45 60 -63 0
-12 23 16 17 26 41 52 18 -42 -53 -57 21 -30 -45 60 -63 0
-14 23 25 -40 17 -26 18 27 -42 53 57 -21 30 -45 -60 63 0
-14 23 16 17 -26 -52 18 27 42 53 -57 21 -30 -45 -60 63 0
-12 23 16 17 26 41 52 27 -42 -53 -57 -21 30 -56 60 -63 0
-12 23 16 26 -41 -52 18 27 42 53 -57 -21 30 -56 -60 63 0
-14 23 16 25 40 -26 41 -52 18 53 -57 -21 45 56 -60 -63 0
-14 23 -25 40 17 -52 18 27 42 -53 57 -21 45 -56 -60 63 0
-14 16 25 -40 17 -26 41 52 27 -42 53 -30 -45 56 60 -63 0
-12 -25 40 17 -26 41 52 18 27 -42 57 -30 -45 -56 60 63 0
-14 23 16 -25 17 26 -41 52 18 -42 21 -30 -45 -56 -60 -63 0
-14 23 16 25 -40 17 -41 18 -27 53 21 -30 -45 -56 -60 -63 0
-12 23 16 -25 40 17 -26 18 -42 53 21 -30 -45 -56 -60 -63 0
-14 25 -40 17 26 -41 52 -27 42 53 -21 -30 -45 -56 60 -63 0
-14 23 16 -25 17 -41 18 27 -42 53 21 -30 -45 -56 -60 -63 0
-14 23 16 -25 26 -52 18 27 42 -53 -21 30 -45 -56 -60 -63 0
-12 -25 40 26 -41 52 18 -27 42 53 -21 -30 -45 -56 -60 63 0
-14 25 -40 -26 41 52 18 27 -42 53 -21 -30 -45 -56 -60 63 0
-12 23 16 25 40 17 -41 -52 42 -57 -21 -30 45 -56 -60 -63 0
-12 16 -25 40 -26 41 52 27 -42 57 -21 -30 -45 56 -60 -63 0
-14 23 16 -40 17 -26 18 27 -42 57 21 -30 -45 -56 -60 -63 0
-12 23 16 -25 17 -41 18 -27 42 57 21 -30 -45 -56 -60 -63 0
-14 -25 40 26 -41 52 18 27 -42 57 -21 -30 -45 -56 -60 63 0
-14 23 25 17 26 41 18 -27 -53 -57 -21 30 -45 -56 -60 -63 0
-14 16 40 -26 41 -52 18 27 53 -57 -21 -30 -45 -56 -60 63 0
-12 23 40 17 26 41 18 -42 -53 -57 -21 -30 45 -56 -60 -63 0
-14 -25 40 17 26 -52 18 42 -53 57 -21 -30 -45 -56 60 -63 0
-12 16 40 17 26 52 27 -42 -53 -57 -21 -30 -45 56 -60 -63 0
-14 23 16 25 -26 -41 52 18 27 42 53 -21 -30 45 -56 -60 -63 0
-12 23 16 40 -26 -41 52 18 27 42 53 -21 30 -45 -56 -60 -63 0
-14 16 25 17 -26 -41 52 18 27 42 53 -21 -30 -45 -56 60 -63 0
-14 23 -25 -40 17 26 52 18 27 42 57 -21 -30 45 -56 -60 -63 0
-14 16 25 40 17 26 52 18 -27 -42 57 -21 -30 -45 -56 -60 63 0
-14 23 16 25 40 -26 -41 18 27 53 57 -21 -30 45 -56 -60 -63 0
-14 16 25 40 17 -26 -41 18 27 53 57 -21 -30 -45 -56 60 -63 0
-12 -14 -40 -26 -52 -19 -28 -43 -54 -58 -20 -29 -44 55 59 0
-12 -14 -40 -26 -52 -19 -28 -43 -54 -58 -20 29 -44 -55 59 0
-12 -14 -40 -26 -52 -19 -28 -43 -54 -58 -20 -29 44 55 -59 0
-12 -14 -40 -26 -52 -19 -28 -43 -54 -58 -21 30 -45 -56 60 0
-12 -14 -40 -26 -52 -19 -28 -43 -54 -58 21 -30 45 -56 -60 0
-12 -14 -40 -26 -52 -19 -28 -43 54 58 -21 -30 -45 -56 -60 0
-12 -14 -40 -26 -52 -19 28 -43 -54 58 -21 -30 -45 -56 -60 0
-12 -14 -25 -41 -52 -19 -28 -43 -54 -58 -21 -30 -45 56 60 0
-12 -14 -25 -41 -52 -19 -28 -43 -54 -58 -21 -30 45 -56 60 0
-12 -14 -25 -41 -52 -19 -28 -43 -54 -58 -21 30 -45 56 -60 0
-12 -14 -25 -41 -52 -19 -28 -43 -54 -58 21 -30 45 -56 -60 0
-12 -14 -25 -41 -52 -19 -28 -43 54 58 -21 -30 -45 -56 -60 0
-12 -14 -25 -41 -52 -19 -28 43 -54 58 -21 -30 -45 -56 -60 0
-14 23 25 17 26 41 52 -19 -28 -43 -54 -58 -21 30 45 -56 65 0
-12 16 25 40 17 41 52 -19 -28 -43 -54 -58 21 -30 -45 60 65 0
-12 -14 16 25 27 -53 -19 -28 -43 -54 -61 -20 29 44 62 64 0
-12 -14 -40 -27 -53 -19 -28 -43 -54 -61 -21 -30 -45 56 63 0
-12 -14 -40 -27 -53 -19 -28 -43 -54 -61 -21 30 -45 -56 63 0
-12 -14 -40 -27 -53 -19 -28 -43 -54 -61 -21 -30 45 56 -63 0
-12 -14 -40 -27 -53 -19 -28 -43 -54 -61 21 -30 45 -56 -63 0
-12 -14 -25 -42 -53 -19 -28 -43 -54 -61 -21 -30 -45 56 63 0
-12 -14 -25 -42 -53 -19 -28 -43 -54 -61 -21 -30 45 -56 63 0
-12 -14 -25 -42 -53 -19 -28 -43 -54 -61 21 -30 45 -56 -63 0
-12 -14 -25 -42 -53 -19 -28 -43 -54 -61 21 30 -45 -56 -63 0
-12 -14 -25 -42 -53 -19 -28 -43 54 61 -21 -30 -45 -56 -63 0
-12 -14 16 -25 18 -42 -53 -28 -43 -54 -61 -21 -30 -45 -65 0
-12 -14 23 -40 -27 42 -53 -19 -28 -54 -61 -21 -45 -56 -65 0
-12 -14 25 18 42 -53 -19 -28 -54 61 -21 30 45 56 63 65 0
-14 23 25 18 27 42 53 -19 -28 -43 -54 -61 -21 30 45 -56 65 0
-12 16 40 18 27 42 53 -19 -28 -43 -54 -61 21 -30 -45 56 65 0
-12 -14 25 -40 -19 -43 -54 -20 -29 55 -64 -21 -30 -45 -56 0
-12 -14 -41 -27 -57 -19 -28 -43 -58 -61 -21 -30 -45 60 63 0
-12 -14 -41 -27 -57 -19 -28 -43 -58 -61 -21 30 -45 -60 63 0
-12 -14 -41 -27 -57 -19 -28 -43 -58 -61 21 -30 45 -60 -63 0
-12 -14 -41 -27 -57 -19 -28 -43 58 61 -21 -30 -45 -60 -63 0
-12 -14 -41 -27 -57 -19 28 -43 -58 61 -21 -30 -45 -60 -63 0
-12 -14 41 18 42 -57 -19 -28 -43 -58 -61 -21 30 45 60 65 0
-14 23 26 18 27 42 57 -19 28 43 -58 -21 -30 -45 -60 -63 65 0
-12 -14 -27 -42 -19 -28 43 -20 -29 -44 -62 -30 45 -63 -65 0
15 24 16 -25 46 17 26 18 -27 53 57 19 28 49 58 0
15 24 16 25 46 17 -26 18 -27 53 57 19 28 49 58 0
15 -24 16 25 46 17 26 18 -27 48 57 19 28 54 58 0
15 24 16 25 46 17 -26 18 -27 48 57 19 28 54 58 0
15 24 16 -25 17 -26 47 52 18 27 53 19 28 49 61 0
15 24 16 -25 17 26 47 52 18 -27 53 19 28 49 61 0
15 -24 16 -25 46 17 26 52 18 27 57 19 28 49 61 0
15 -24 16 25 17 26 47 52 18 -27 48 19 28 54 61 0
15 -24 16 -25 46 17 26 47 18 27 57 19 28 54 61 0
15 24 16 25 46 17 -26 47 18 -27 57 19 28 54 61 0
15 16 25 46 17 26 52 18 -27 48 -57 28 49 54 61 0
15 -24 16 46 17 26 -47 18 27 53 57 28 49 54 61 0
15 24 16 46 17 26 47 18 -27 53 -57 28 49 54 61 0
15 24 16 -25 46 17 26 47 18 -27 53 19 28 58 61 0
15 16 25 17 26 47 52 18 -27 48 -53 28 49 58 61 0
15 24 16 25 46 17 -26 -52 18 48 57 28 49 58 61 0
15 24 16 25 46 17 47 18 -27 -53 57 28 49 58 61 0
15 24 16 17 26 47 52 18 -27 -48 53 28 54 58 61 0
15 24 16 -25 -46 17 52 18 27 48 57 28 54 58 61 0
15 24 16 -25 -46 17 26 47 18 53 57 28 54 58 61 0
-12 15 -24 16 46 17 26 -52 18 -27 57 19 -28 -49 -54 58 0
-12 15 16 -25 46 17 -26 18 27 -48 57 19 -28 -49 -54 61 0
-12 15 16 -25 17 -26 47 18 27 -48 53 19 -28 -49 -58 61 0
-12 15 24 16 -25 46 17 -47 18 -27 57 19 -28 49 -58 -61 0
-12 15 -24 16 -25 17 47 18 27 53 -57 19 -28 -49 -58 61 0
-12 15 -24 16 17 26 47 -52 18 -27 53 19 -28 -54 58 -61 0
-12 15 16 -25 46 -26 52 18 27 -48 -19 -28 -49 54 -58 -61 0
-12 15 -25 17 -26 47 52 18 27 -48 -19 -28 -49 -54 58 -61 0
-12 15 -24 16 25 -26 47 18 48 -53 -19 -28 49 -54 -58 -61 0
-12 15 -25 17 26 -47 18 -27 48 53 -19 -28 -49 -54 -58 61 0
-12 -24 16 17 26 -52 18 -27 48 53 -19 -28 -49 -54 -58 61 0
-12 15 24 16 -46 17 -26 52 -27 57 -19 -28 -49 -54 58 -61 0
-12 -24 16 -25 46 17 52 18 27 -57 -19 -28 -49 54 -58 -61 0
-12 -24 16 25 17 -52 18 -27 48 57 -19 -28 -49 -54 -58 61 0
-12 15 -24 16 -25 17 52 27 53 -57 19 -28 -49 -54 -58 -61 0
-12 15 24 16 -46 -26 18 -27 53 57 -19 -28 -49 -54 -58 61 0
-12 15 24 -25 17 -47 18 -27 53 57 -19 -28 -49 -54 -58 61 0
15 24 16 25 46 17 -26 -52 18 -27 48 -19 28 -49 -54 -58 -61 0
15 24 16 25 46 17 -26 52 18 -27 -48 -19 28 -49 -54 -58 -61 0
15 24 16 -25 17 26 47 -52 18 -27 48 -19 28 -49 -54 -58 -61 0
15 24 16 -25 17 26 47 52 18 -27 -48 -19 28 -49 -54 -58 -61 0
15 -24 16 25 17 26 -47 52 18 -27 53 -19 28 -49 -54 -58 -61 0
15 -24 16 25 17 26 47 52 18 -27 -53 -19 28 -49 -54 -58 -61 0
15 24 16 -25 17 -26 47 52 18 48 -53 -19 -28 -49 54 -58 -61 0
15 -24 16 25 17 -26 47 52 18 -48 53 -19 -28 49 -54 -58 -61 0
15 -24 16 25 17 -26 52 18 27 -48 53 -19 28 -49 -54 -58 -61 0
15 -24 16 25 17 -47 52 18 -27 48 53 -19 -28 49 -54 -58 -61 0
15 24 16 -25 -46 17 26 47 18 -27 57 -19 28 -49 -54 -58 -61 0
15 -24 16 25 -46 17 26 52 18 -27 57 -19 28 -49 -54 -58 -61 0
15 24 16 -25 46 17 -26 52 18 48 -57 -19 -28 -49 -54 58 -61 0
15 -24 16 -25 46 17 26 52 18 -48 57 -19 -28 49 -54 -58 -61 0
15 24 16 -25 -46 17 -26 18 27 48 57 -19 28 -49 -54 -58 -61 0
15 24 16 46 17 -26 -52 18 -27 48 57 -19 -28 -49 -54 58 -61 0
15 16 -25 -46 17 -26 52 18 27 48 57 -19 -28 -49 54 -58 -61 0
15 -24 16 -25 46 17 26 47 18 -53 57 -19 -28 -49 54 -58 -61 0
15 -24 16 -46 17 -26 47 18 27 53 57 -19 -28 49 -54 -58 -61 0
15 16 -25 -46 17 26 47 18 -27 53 57 -19 -28 -49 54 -58 -61 0
15 -24 16 25 17 26 52 18 -27 48 57 20 29 50 55 0
15 -24 16 17 26 47 52 18 -27 48 -53 -20 -29 -50 -55 -59 62 0
15 24 16 -25 17 -26 52 18 27 48 57 21 30 51 56 0
15 -24 16 25 17 26 52 18 -27 48 57 21 30 51 56 0
15 24 16 25 17 -26 52 18 -27 48 57 21 30 51 56 0
15 24 16 -25 17 -26 52 18 27 48 53 21 30 51 60 0
15 24 16 -25 17 26 52 18 -27 48 53 21 30 51 60 0
15 -24 16 -25 46 17 26 18 27 53 57 21 30 51 60 0
15 24 16 25 46 17 -26 18 -27 53 57 21 30 51 60 0
15 -24 16 25 17 -26 47 18 27 48 53 21 30 56 60 0
15 -24 16 25 46 17 26 18 -27 48 57 21 30 56 60 0
15 -24 16 25 17 47 52 18 27 -48 53 30 51 56 60 0
15 24 16 -25 17 47 52 18 27 48 -53 30 51 56 60 0
15 -24 16 -25 46 17 26 52 18 27 57 21 30 51 63 0
15 24 16 -25 46 17 -26 52 18 27 57 21 30 51 63 0
15 -24 16 25 17 26 47 52 18 -27 48 21 30 56 63 0
15 -24 16 -25 46 17 26 47 18 27 57 21 30 56 63 0
15 16 -25 46 17 26 -52 18 27 48 57 30 51 56 63 0
15 16 25 46 17 26 52 18 -27 48 -57 30 51 56 63 0
15 -24 16 46 17 26 -47 18 27 53 57 30 51 56 63 0
15 -24 16 -25 46 17 26 47 18 27 53 21 30 60 63 0
15 -24 16 25 46 17 -26 47 18 27 53 21 30 60 63 0
15 24 16 -25 46 17 26 47 18 -27 53 21 30 60 63 0
15 -24 16 25 -46 17 26 52 18 48 57 30 51 60 63 0
15 24 16 25 46 17 -26 -52 18 48 57 30 51 60 63 0
15 24 16 17 -26 -47 52 18 27 48 53 30 56 60 63 0
15 24 16 25 46 17 -26 -47 18 53 57 30 56 60 63 0
-12 15 -24 16 25 17 47 -52 18 -27 53 21 -30 -51 56 -60 0
-12 15 16 25 -46 17 -26 52 18 -27 48 21 -30 -51 56 -63 0
-12 15 -24 16 25 17 -26 52 18 48 -53 21 -30 -51 56 -63 0
-12 15 16 -25 17 26 -47 52 18 -27 48 21 -30 -51 60 -63 0
-12 15 -24 16 -25 17 47 18 27 53 -57 21 -30 -51 -60 63 0
-12 15 -24 16 25 46 17 -52 18 -27 57 21 -30 56 -60 -63 0
-12 15 -24 16 -25 17 52 18 27 48 -57 21 -30 -56 -60 63 0
-12 15 -24 16 25 46 17 -26 18 -53 57 21 -30 56 -60 -63 0
-12 15 -24 16 -25 17 26 47 18 53 -57 21 -30 -56 60 -63 0
-12 15 -24 16 46 17 26 -52 -27 48 -21 -30 51 -56 -60 -63 0
-12 15 16 -25 46 17 26 -47 -27 53 -21 -30 -51 56 -60 -63 0
-12 15 24 16 -25 17 -47 52 -27 53 -21 -30 -51 56 -60 -63 0
-12 15 -24 16 46 -26 47 18 27 -53 -21 -30 51 -56 -60 -63 0
-12 15 -24 16 25 -26 47 18 48 -53 -21 -30 51 -56 -60 -63 0
-12 15 24 16 -25 -26 52 18 -48 53 -21 -30 -51 56 -60 -63 0
-12 15 -25 17 26 -47 18 -27 48 53 -21 -30 -51 -56 -60 63 0
-12 -24 16 17 26 -52 18 -27 48 53 -21 -30 -51 -56 -60 63 0
-12 15 16 25 -46 17 -26 47 -27 57 -21 -30 -51 -56 60 -63 0
-12 15 24 16 -46 17 -26 52 -27 57 -21 -30 -51 -56 60 -63 0
-12 -24 16 -25 46 17 52 18 27 -57 -21 -30 -51 56 -60 -63 0
-12 15 -24 -25 46 17 26 18 48 -57 -21 -30 51 -56 -60 -63 0
-12 -24 16 25 17 -52 18 -27 48 57 -21 -30 -51 -56 -60 63 0
-12 -24 16 25 17 -26 47 18 -53 57 -21 -30 -51 -56 60 -63 0
15 24 16 -25 17 26 47 -52 18 -27 48 -21 30 -51 -56 -60 -63 0
15 24 16 25 46 17 -26 47 18 -27 -53 -21 30 -51 -56 -60 -63 0
15 -24 16 25 17 26 47 52 18 -27 -53 -21 30 -51 -56 -60 -63 0
15 24 16 -25 17 -26 47 52 18 48 -53 -21 -30 -51 56 -60 -63 0
15 -24 16 25 17 -26 -52 18 27 48 53 -21 30 -51 -56 -60 -63 0
15 24 16 -25 17 47 -52 18 -27 48 53 -21 -30 -51 56 -60 -63 0
15 -24 16 25 17 -47 52 18 -27 48 53 -21 -30 51 -56 -60 -63 0
15 -24 16 17 -26 47 -52 18 27 48 53 -21 -30 -51 -56 60 -63 0
15 16 -25 17 -26 -47 52 18 27 48 53 -21 -30 -51 -56 60 -63 0
15 -24 16 25 -46 17 26 52 18 -27 57 -21 30 -51 -56 -60 -63 0
15 24 16 -25 -46 17 -26 18 27 48 57 -21 30 -51 -56 -60 -63 0
15 24 16 -25 46 17 -26 18 27 48 -57 -21 30 -51 -56 -60 -63 0
15 -24 16 -25 46 17 -52 18 27 48 57 -21 -30 -51 56 -60 -63 0
15 -24 16 -25 17 26 52 18 27 -48 57 -21 30 -51 -56 -60 -63 0
15 -24 16 -25 46 17 26 47 18 -53 57 -21 -30 -51 56 -60 -63 0
15 -24 16 25 46 17 -26 18 27 53 -57 -21 30 -51 -56 -60 -63 0
15 24 16 -25 46 17 47 18 -27 53 -57 -21 -30 -51 -56 -60 63 0
15 -24 16 -46 17 -26 47 18 27 53 57 -21 -30 51 -56 -60 -63 0
15 24 16 25 46 -26 47 -19 -28 -49 -54 -58 -21 30 56 -60 65 0
15 24 16 46 17 -26 47 -19 -28 -49 -54 -58 21 -30 -56 60 65 0
15 24 -25 46 18 27 48 -19 28 -54 61 -21 -30 -51 -56 -63 65 0
-12 15 24 -25 46 -19 -28 -49 -54 20 -29 50 21 -30 65 -66 0
-12 -24 16 25 46 -19 -28 -49 -54 20 -29 55 21 -30 65 -66 0
-12 17 26 18 -48 -57 28 49 58 -61 -21 -30 -51 -60 -63 65 0
15 24 17 26 47 -27 57 -19 28 49 -61 -21 -30 -51 -60 -63 65 0
16 25 17 26 52 -27 57 -19 28 54 -61 -20 -29 -55 -59 -62 64 0
14 31 15 -32 16 -33 46 17 34 41 52 18 35 42 48 0
14 -31 15 32 16 33 46 17 -34 41 52 18 35 42 48 0
14 -31 15 32 16 33 46 17 34 41 52 18 -35 42 48 0
14 31 15 -32 16 33 46 17 34 41 52 18 -35 42 48 0
14 31 15 -32 16 33 40 17 -34 47 52 18 35 42 48 0
14 -31 15 32 16 33 40 17 34 47 52 18 -35 42 48 0
14 -31 15 32 16 33 46 17 -34 41 47 18 35 42 53 0
14 -31 15 32 16 33 46 17 34 41 47 18 -35 42 53 0
14 31 15 32 16 -33 46 17 34 41 47 18 -35 42 53 0
14 -31 15 -32 39 16 33 17 34 47 52 18 35 42 53 0
14 -31 15 32 16 -33 40 17 34 41 47 18 35 48 53 0
14 -31 15 32 16 33 40 17 -34 41 47 18 35 48 53 0
14 31 15 -32 16 33 40 17 -34 41 47 18 35 48 53 0
14 -31 15 -32 39 16 33 17 34 41 52 18 35 48 53 0
14 -31 15 32 39 16 33 17 -34 41 52 18 35 48 53 0
14 31 15 -32 39 16 33 17 34 41 52 18 -35 48 53 0
14 31 15 32 39 16 -33 17 34 41 52 18 -35 48 53 0
31 15 -32 -39 16 33 40 17 41 47 52 18 35 48 53 0
31 15 32 -39 16 33 40 17 41 -47 52 18 35 48 53 0
31 15 32 39 16 33 -40 17 41 47 -52 18 35 48 53 0
31 15 -32 -39 16 33 40 17 34 47 52 18 42 48 53 0
31 15 32 39 16 -33 -40 17 34 47 52 18 42 48 53 0
31 15 32 39 16 -33 40 17 34 47 -52 18 42 48 53 0
31 15 32 39 16 33 -40 17 34 47 52 18 42 48 -53 0
31 15 39 16 33 17 34 41 47 52 18 35 -42 -48 53 0
31 15 32 16 40 17 -34 -41 47 52 18 35 42 48 53 0
31 15 32 16 40 17 34 -41 47 -52 18 35 42 48 53 0
31 15 32 16 40 17 34 41 47 52 18 -35 -42 48 53 0
31 15 32 16 40 17 34 41 47 52 18 35 -42 48 -53 0
14 -31 15 32 16 -33 40 46 17 34 41 18 35 48 57 0
14 31 15 -32 16 -33 40 46 17 34 41 18 35 48 57 0
14 31 15 -32 16 33 40 46 17 34 41 18 -35 48 57 0
14 31 15 32 39 16 33 40 17 -34 52 18 -35 48 57 0
31 15 -32 -39 16 40 46 17 34 41 52 18 35 48 57 0
31 15 32 39 16 40 46 17 -34 -41 52 18 35 48 57 0
31 15 32 39 16 40 46 17 34 -41 -52 18 35 48 57 0
31 15 39 16 33 -40 -46 17 34 52 18 35 42 48 57 0
31 15 39 16 33 40 46 17 34 52 18 -35 -42 48 57 0
31 15 39 16 33 40 46 17 34 52 18 35 -42 -48 57 0
31 15 32 16 33 40 46 17 41 52 18 -35 -42 48 57 0
31 15 32 16 33 40 46 17 41 52 18 35 -42 48 -57 0
14 -31 15 -32 39 16 33 46 17 34 41 18 35 53 57 0
31 15 39 16 -33 -40 46 17 34 41 47 18 35 53 57 0
31 15 39 16 33 -40 -46 17 34 41 47 18 35 53 57 0
31 15 39 16 33 40 46 17 -34 -41 47 18 35 53 57 0
31 15 39 16 33 40 46 17 34 -41 -47 18 35 53 57 0
31 15 39 16 33 40 46 17 -34 41 47 18 35 53 -57 0
31 15 32 16 -33 -40 46 17 34 41 47 18 42 53 57 0
31 15 32 16 33 40 46 17 -34 -41 47 18 42 53 57 0
31 15 32 16 33 40 46 17 -34 41 -47 18 42 53 57 0
31 15 32 16 33 40 46 17 34 -41 47 18 42 53 -57 0
31 15 32 -39 16 40 -46 17 34 47 18 35 42 53 57 0
31 15 -32 39 16 40 46 17 34 -47 18 35 42 53 57 0
31 15 32 39 16 40 46 17 34 47 18 -35 -42 53 57 0
31 15 -32 39 16 33 -46 17 41 47 18 35 42 53 57 0
31 15 32 -39 16 33 46 17 41 -47 18 35 42 53 57 0
31 15 32 39 16 33 46 17 41 47 18 -35 -42 53 57 0
31 15 32 39 16 33 46 17 41 47 18 35 -42 53 -57 0
13 14 31 15 39 16 46 17 34 52 35 42 -48 -53 57 0
-14 31 15 32 16 40 46 17 34 -41 47 36 43 49 54 0
-14 31 15 39 16 33 46 17 34 -41 52 36 43 49 54 0
-13 31 15 -32 16 40 46 17 34 41 52 36 43 49 54 0
-14 31 15 32 16 33 -40 46 17 41 47 36 43 49 58 0
-14 31 15 39 16 33 -40 17 34 47 52 36 43 49 58 0
31 15 39 16 33 40 46 17 34 -41 -47 19 36 54 58 0
-14 31 15 32 -39 16 -33 46 34 -41 47 -19 36 -43 49 -54 0
-13 31 15 -32 39 16 -40 46 -34 41 47 -19 -36 43 49 -54 0
-13 31 15 -39 16 -33 40 46 -34 41 52 -19 -36 43 -49 54 0
-14 31 32 -39 16 33 -40 46 17 -34 52 -19 36 -43 54 -58 0
-13 31 -32 39 16 -33 40 46 17 -41 52 -19 -36 43 54 -58 0
-13 31 15 16 33 40 46 17 -41 -47 -52 19 -36 -43 54 -58 0
-13 31 -32 39 16 -40 17 -34 41 47 52 -19 -36 43 -54 58 0
-13 31 32 -39 16 33 40 -46 17 -47 52 -19 36 -49 54 -58 0
-13 31 32 -39 16 -46 17 34 41 -47 52 -19 36 -49 -54 58 0
-13 31 15 33 -40 -46 17 34 41 47 -52 -19 36 -49 -54 58 0
-14 31 15 32 39 16 46 -34 41 -47 -52 -19 43 49 -54 -58 0
-14 31 15 -33 40 -46 17 34 41 47 -52 -19 43 -49 -54 58 0
-13 -32 39 16 33 -40 17 -34 41 47 52 -36 -43 -49 54 58 0
-13 31 15 -39 16 33 40 -46 41 -47 -19 -36 43 -49 -54 -58 0
-13 -32 39 16 -33 40 46 34 -41 47 -19 -36 -43 -49 54 -58 0
-14 32 -39 16 33 -40 46 -34 41 47 -19 -36 -43 -49 54 -58 0
-13 31 15 -39 40 -46 17 34 41 -47 -19 -36 43 -49 -54 -58 0
-14 31 15 -39 16 33 -40 17 -34 52 19 -36 -43 -49 -54 -58 0
-13 31 15 32 39 16 -40 -46 41 -52 -19 -36 43 -49 -54 -58 0
-14 15 32 -39 33 -40 46 -34 41 52 -19 -36 -43 49 -54 -58 0
-14 31 32 16 -33 -46 17 34 41 -52 -19 36 -43 -49 -54 -58 0
-14 31 32 16 33 40 17 -34 -47 -52 -19 36 -43 -49 -54 -58 0
-13 32 -39 16 40 -46 17 34 -47 52 -19 -36 -43 -49 54 -58 0
-14 -32 39 16 40 -46 17 34 -47 52 -19 -36 -43 -49 -54 58 0
-14 -32 39 16 33 -46 17 41 -47 52 -19 -36 -43 -49 54 -58 0
-13 15 32 33 -40 -46 17 41 47 -52 -19 -36 -43 -49 -54 58 0
-13 15 -32 39 33 -40 -34 41 47 52 -19 -36 -43 49 -54 -58 0
-14 15 39 16 33 46 -34 41 -47 -52 -19 -36 -43 -49 54 -58 0
-14 15 32 16 40 46 -34 41 -47 -52 -19 -36 -43 49 -54 -58 0
-14 31 15 32 16 33 40 46 -34 -41 47 -19 -36 43 -49 -54 -58 0
-13 31 15 32 39 16 40 46 -34 -41 52 -19 36 -43 -49 -54 -58 0
-14 31 -32 -39 16 33 46 17 34 41 52 -19 -36 43 -49 -54 -58 0
-14 15 -32 -39 16 33 46 17 34 41 52 -19 -36 -43 49 -54 -58 0
-14 31 -32 -39 16 33 40 17 34 47 52 -19 -36 43 -49 -54 -58 0
-14 15 32 39 16 -33 -40 17 34 47 52 -19 -36 -43 -49 54 -58 0
-13 31 15 32 39 -33 -40 17 41 47 52 -19 36 -43 -49 -54 -58 0
-13 15 32 39 16 -33 -40 17 41 47 52 -19 -36 -43 -49 54 -58 0
-13 31 -32 39 16 -33 40 46 17 -41 52 -20 -37 44 55 -59 0
-13 -32 39 16 -33 40 46 17 34 -41 52 -37 -44 -50 55 59 0
-14 32 -39 16 -33 40 17 34 -41 47 52 -37 -44 -50 55 59 0
-13 15 32 16 40 46 34 -41 -47 -52 -20 -37 -44 -50 55 -59 0
-14 31 15 32 -33 -40 46 17 34 41 47 -20 -37 44 -50 -55 -59 0
31 15 32 39 16 -33 -40 17 34 47 52 21 45 51 56 0
-13 31 15 39 16 33 46 17 -34 41 47 38 45 51 56 0
-14 31 15 -39 16 33 46 17 34 41 52 38 45 51 56 0
-13 31 15 -32 16 40 46 17 34 41 52 38 45 51 56 0
-13 31 15 32 16 40 46 17 -34 41 52 38 45 51 56 0
31 15 -32 -39 16 40 46 17 34 41 52 21 38 51 60 0
31 15 32 39 16 40 46 17 34 -41 -52 21 38 51 60 0
31 15 -32 -39 16 33 46 17 34 41 52 21 45 51 60 0
31 15 39 16 -33 -40 46 17 34 41 47 21 38 56 60 0
31 15 39 16 33 40 46 17 -34 -41 47 21 38 56 60 0
31 15 39 16 33 40 46 17 34 -41 -47 21 38 56 60 0
31 15 32 16 33 40 46 17 -34 -41 47 21 45 56 60 0
-13 31 15 -32 39 16 40 46 17 34 52 38 45 56 60 0
-14 31 15 32 39 16 -40 17 34 47 52 38 45 56 60 0
-13 31 15 -32 39 16 33 17 41 47 52 38 45 56 60 0
-13 31 15 -32 39 16 -40 46 -34 41 47 -21 -38 45 51 -56 0
-14 31 15 32 39 16 -33 -46 17 47 -52 21 -38 -45 51 -56 0
-13 31 15 32 39 16 -40 -46 17 47 -52 21 -38 -45 51 -56 0
-13 31 15 -39 16 33 40 -46 17 -47 52 21 -38 -45 -51 56 0
-14 31 15 32 -39 33 -40 46 17 -34 47 -21 38 -45 51 -60 0
-14 31 15 32 39 16 46 17 -34 -47 -52 21 -38 -45 51 -60 0
-14 31 15 -32 33 -40 17 34 -41 47 52 -21 38 -45 -51 60 0
-14 31 15 -32 16 -46 17 34 41 -47 52 21 -38 -45 -51 60 0
-13 31 15 -39 16 -46 17 34 41 -47 52 21 -38 -45 -51 60 0
-14 31 32 -39 16 33 -40 46 17 -34 52 -21 38 -45 56 -60 0
-13 31 15 16 33 40 46 17 -41 -47 -52 21 -38 -45 56 -60 0
-14 31 15 16 -33 -46 17 34 41 47 -52 21 -38 -45 -56 60 0
-13 31 15 16 -40 -46 17 34 41 47 -52 21 -38 -45 -56 60 0
-14 31 15 32 39 -33 40 -46 17 47 -52 -21 45 51 -56 -60 0
-14 31 15 16 33 40 46 -34 41 -47 -52 -21 45 -51 56 -60 0
-13 15 -32 39 16 33 -40 46 -34 41 47 -38 -45 51 56 -60 0
-14 15 32 -39 16 -33 40 46 34 -41 47 -38 -45 51 56 -60 0
-14 32 -39 16 33 -40 46 17 -34 41 52 -38 -45 -51 56 60 0
-13 15 32 -39 -33 40 17 -34 41 47 52 -38 -45 51 -56 60 0
-14 15 -32 39 33 -40 17 34 -41 47 52 -38 -45 51 -56 60 0
-13 31 15 -32 39 16 -40 46 17 -34 21 -38 -45 -51 -56 -60 0
-14 31 15 -32 16 33 -40 46 17 -41 21 -38 -45 -51 -56 -60 0
-13 31 15 -39 16 33 40 -46 41 -47 -21 -38 45 -51 -56 -60 0
-13 31 15 -32 39 16 -33 17 -41 47 21 -38 -45 -51 -56 -60 0
-13 -32 39 16 -33 40 46 34 -41 47 -21 -38 -45 -51 56 -60 0
-14 32 -39 16 33 -40 46 -34 41 47 -21 -38 -45 -51 56 -60 0
-13 31 15 -39 16 -33 17 -34 41 47 21 -38 -45 -51 -56 -60 0
-14 31 15 -32 16 -40 17 34 -41 47 21 -38 -45 -51 -56 -60 0
-13 31 15 -39 40 -46 17 34 41 -47 -21 -38 45 -51 -56 -60 0
-13 -32 39 33 -40 46 17 -34 41 47 -21 -38 -45 -51 -56 60 0
-14 31 15 32 39 16 -33 -46 34 -52 -21 38 -45 -51 -56 -60 0
-13 31 15 32 39 16 -40 -46 41 -52 -21 -38 45 -51 -56 -60 0
-14 31 15 -39 16 -33 17 34 -41 52 21 -38 -45 -51 -56 -60 0
-13 31 15 -32 16 -40 17 -34 41 52 21 -38 -45 -51 -56 -60 0
-13 31 39 16 -40 -46 17 34 41 -52 -21 -38 45 -51 -56 -60 0
-13 32 -39 16 40 -46 17 34 -47 52 -21 -38 -45 -51 56 -60 0
-13 31 15 32 39 40 17 -41 -47 -52 -21 -38 45 -51 -56 -60 0
-14 15 32 -33 40 -46 17 41 47 -52 -21 -38 -45 51 -56 -60 0
-13 32 -39 16 -33 40 -34 41 47 52 -21 -38 -45 -51 56 -60 0
-14 31 15 32 -33 -40 46 17 34 41 47 -21 -38 45 -51 -56 -60 0
-13 31 15 39 -33 -40 46 17 34 41 47 -21 38 -45 -51 -56 -60 0
-13 15 32 39 16 40 46 17 -34 -41 52 -21 -38 -45 -51 -56 60 0
-13 15 -32 -39 16 40 46 17 34 41 52 -21 -38 -45 51 -56 -60 0
-14 15 32 39 16 -33 -40 17 34 47 52 -21 -38 -45 -51 56 -60 0
31 15 32 -39 16 33 40 18 42 -48 53 19 36 49 54 0
31 15 32 39 16 33 -40 18 42 48 -53 19 36 49 54 0
-14 31 15 39 16 33 46 18 35 -42 53 36 43 49 54 0
31 15 -32 -39 16 40 46 18 35 42 53 19 36 49 61 0
31 15 32 39 16 40 46 18 -35 -42 53 19 36 49 61 0
31 15 39 16 33 40 46 18 -35 -42 48 19 36 54 61 0
31 15 32 16 -33 -40 46 18 35 42 48 19 43 54 61 0
-14 31 15 32 39 16 33 46 18 -42 53 36 43 54 61 0
-14 31 15 32 -39 16 40 18 35 48 53 36 43 54 61 0
-14 31 15 -32 16 33 -40 46 35 -42 53 -19 36 -43 -49 54 0
-13 31 15 -39 16 -33 40 46 -35 42 53 -19 -36 43 -49 54 0
-13 31 15 -39 16 33 40 -46 18 -48 53 19 -36 -43 -49 54 0
-14 31 15 32 39 16 46 18 -35 -48 -53 19 -36 -43 49 -61 0
-13 31 15 32 39 16 46 18 -42 -48 -53 19 -36 -43 49 -61 0
-14 31 15 -32 33 -40 18 35 -42 48 53 -19 36 -43 -49 61 0
-14 31 32 -39 16 33 -40 46 18 -35 53 -19 36 -43 54 -61 0
-13 31 -32 39 16 -33 40 46 18 -42 53 -19 -36 43 54 -61 0
-13 31 15 16 33 40 46 18 -42 -48 -53 19 -36 -43 54 -61 0
-14 31 32 -39 16 -33 18 35 -42 48 53 -19 36 -43 -54 61 0
-13 31 -32 39 16 -40 18 -35 42 48 53 -19 -36 43 -54 61 0
-13 31 15 32 39 33 -40 -46 18 48 -53 -19 36 49 -54 -61 0
-14 31 15 32 39 16 46 -35 42 -48 -53 -19 43 49 -54 -61 0
-13 15 -32 39 16 33 -40 46 -35 42 48 -36 -43 49 54 -61 0
-14 15 32 -39 16 -33 40 46 35 -42 48 -36 -43 49 54 -61 0
-14 15 -32 39 16 33 -40 46 35 -42 53 -36 -43 49 54 -61 0
-14 32 -39 16 33 -40 46 18 -35 42 53 -36 -43 -49 54 61 0
-14 32 -39 16 -33 40 18 35 -42 48 53 -36 -43 -49 54 61 0
-13 31 15 -32 39 16 -40 46 18 -35 19 -36 -43 -49 -54 -61 0
-13 31 15 -39 16 -33 40 46 18 -35 19 -36 -43 -49 -54 -61 0
-14 31 15 32 -39 16 -40 18 -35 48 19 -36 -43 -49 -54 -61 0
-13 31 15 -32 39 16 -33 18 -42 48 19 -36 -43 -49 -54 -61 0
-14 32 -39 16 33 -40 46 -35 42 48 -19 -36 -43 -49 54 -61 0
-13 31 15 -39 16 -33 18 -35 42 48 19 -36 -43 -49 -54 -61 0
-13 -32 39 33 -40 46 18 -35 42 48 -19 -36 -43 -49 -54 61 0
-13 31 15 -32 16 -33 40 18 -42 53 19 -36 -43 -49 -54 -61 0
-14 15 32 -39 33 -40 46 -35 42 53 -19 -36 -43 49 -54 -61 0
-13 31 15 -32 16 -40 18 -35 42 53 19 -36 -43 -49 -54 -61 0
-13 32 -39 -33 40 46 18 -35 42 53 -19 -36 -43 -49 -54 61 0
-14 -32 39 33 -40 46 18 35 -42 53 -19 -36 -43 -49 -54 61 0
-13 31 39 16 33 40 18 -42 -48 -53 -19 -36 43 -49 -54 -61 0
-13 32 -39 16 33 -46 18 42 -48 53 -19 -36 -43 -49 -54 61 0
-13 15 32 33 -40 -46 18 42 48 -53 -19 -36 -43 -49 -54 61 0
-14 -32 39 16 33 -40 35 -42 48 53 -19 -36 -43 -49 54 -61 0
-14 31 15 32 16 33 40 46 -35 -42 48 -19 -36 43 -49 -54 -61 0
-13 31 15 39 16 33 40 46 -35 -42 48 -19 36 -43 -49 -54 -61 0
-14 31 15 32 -33 -40 46 18 35 42 48 -19 -36 43 -49 -54 -61 0
-14 31 15 32 39 16 33 46 -35 -42 53 -19 -36 43 -49 -54 -61 0
-14 31 -32 -39 16 33 46 18 35 42 53 -19 -36 43 -49 -54 -61 0
-14 15 32 39 16 33 46 18 -35 -42 53 -19 -36 -43 -49 -54 61 0
-13 31 -32 -39 16 40 46 18 35 42 53 -19 36 -43 -49 -54 -61 0
-14 31 15 32 39 -33 -40 18 35 48 53 -19 -36 43 -49 -54 -61 0
-14 31 -32 -39 16 33 40 18 35 48 53 -19 -36 43 -49 -54 -61 0
-13 31 15 -39 16 -33 40 46 -35 42 53 -20 -37 44 -50 55 0
-14 31 15 16 -33 -46 18 35 42 48 -53 20 -37 -44 -55 62 0
-13 31 15 16 -40 -46 18 35 42 48 -53 20 -37 -44 -55 62 0
-13 31 15 32 39 33 -40 -46 18 48 -53 -20 37 50 -55 -62 0
-13 31 15 33 -40 -46 18 35 42 48 -53 -20 37 -50 -55 62 0
-14 31 15 -33 40 -46 18 35 42 48 -53 -20 44 -50 -55 62 0
-13 -32 39 16 -33 40 46 18 35 -42 53 -37 -44 -50 55 62 0
-13 -32 39 16 -33 40 46 35 -42 48 -20 -37 -44 -50 55 -62 0
-13 31 15 32 39 16 -40 -46 42 -53 -20 -37 44 -50 -55 -62 0
-14 31 32 16 -33 -46 18 35 42 -53 -20 37 -44 -50 -55 -62 0
-13 31 39 16 -40 -46 18 35 42 -53 -20 -37 44 -50 -55 -62 0
-13 32 -39 16 40 -46 18 35 -48 53 -20 -37 -44 -50 55 -62 0
-14 15 32 -33 40 -46 18 42 48 -53 -20 -37 -44 50 -55 -62 0
-13 15 32 16 40 46 35 -42 -48 -53 -20 -37 -44 -50 55 -62 0
31 15 32 -39 16 33 40 18 42 -48 53 21 38 51 56 0
31 15 32 39 16 -33 -40 18 35 48 53 21 45 51 56 0
-13 31 15 32 16 40 46 18 -35 42 53 38 45 51 56 0
31 15 32 -39 16 40 -46 18 35 42 53 21 38 51 63 0
31 15 32 39 16 40 46 18 35 -42 -53 21 38 51 63 0
31 15 -32 -39 16 33 46 18 35 42 53 21 45 51 63 0
-13 31 15 39 16 -33 40 46 18 35 48 38 45 51 63 0
-14 31 15 32 16 33 -40 46 18 42 48 38 45 51 63 0
31 15 32 16 -33 -40 46 18 35 42 48 21 45 56 63 0
31 15 32 16 33 40 46 18 -35 -42 48 21 45 56 63 0
-13 31 15 -32 39 16 40 46 18 35 53 38 45 56 63 0
-14 31 15 32 -39 16 33 46 18 42 53 38 45 56 63 0
-13 31 15 -32 39 16 33 18 42 48 53 38 45 56 63 0
-14 31 15 32 -39 16 -33 46 35 -42 48 -21 38 -45 51 -56 0
-13 31 15 -39 16 33 40 -46 18 -48 53 21 -38 -45 -51 56 0
-14 31 15 32 39 16 46 18 -35 -48 -53 21 -38 -45 51 -63 0
-14 31 32 -39 16 -33 18 35 -42 48 53 -21 38 -45 -56 63 0
-14 31 15 16 -33 -46 18 35 42 48 -53 21 -38 -45 -56 63 0
-13 15 -32 39 16 33 -40 46 -35 42 48 -38 -45 51 56 -63 0
-14 15 32 -39 16 -33 40 46 35 -42 48 -38 -45 51 56 -63 0
-13 31 15 -39 16 -33 40 46 18 -35 21 -38 -45 -51 -56 -63 0
-13 31 15 -39 16 33 40 -46 42 -48 -21 -38 45 -51 -56 -63 0
-13 31 15 -39 16 -33 18 -35 42 48 21 -38 -45 -51 -56 -63 0
-14 31 15 -32 16 -40 18 35 -42 48 21 -38 -45 -51 -56 -63 0
-13 31 15 -39 40 -46 18 35 42 -48 -21 -38 45 -51 -56 -63 0
-13 -32 39 33 -40 46 18 -35 42 48 -21 -38 -45 -51 -56 63 0
-13 31 15 32 39 16 -40 -46 42 -53 -21 -38 45 -51 -56 -63 0
-13 31 15 -32 16 -33 40 18 -42 53 21 -38 -45 -51 -56 -63 0
-13 31 15 -32 16 -40 18 -35 42 53 21 -38 -45 -51 -56 -63 0
-13 31 39 16 -40 -46 18 35 42 -53 -21 -38 45 -51 -56 -63 0
-14 31 32 16 33 40 18 -35 -48 -53 -21 38 -45 -51 -56 -63 0
-13 32 -39 16 40 -46 18 35 -48 53 -21 -38 -45 -51 56 -63 0
-13 31 15 32 39 40 18 -42 -48 -53 -21 -38 45 -51 -56 -63 0
-13 32 -39 16 33 -46 18 42 -48 53 -21 -38 -45 -51 -56 63 0
-13 15 -32 39 33 -40 -35 42 48 53 -21 -38 -45 51 -56 -63 0
-14 31 15 32 16 33 40 46 -35 -42 48 -21 -38 45 -51 -56 -63 0
-13 31 15 39 -33 -40 46 18 35 42 48 -21 38 -45 -51 -56 -63 0
-13 15 39 16 -33 -40 46 18 35 42 48 -21 -38 -45 -51 56 -63 0
-14 31 -32 -39 16 33 40 18 35 48 53 -21 -38 45 -51 -56 -63 0
-14 15 -32 -39 16 33 40 18 35 48 53 -21 -38 -45 51 -56 -63 0
-13 -14 -39 -33 -46 -19 -36 -43 49 54 -21 -38 -45 -51 -56 0
-13 -14 -39 -33 -46 -19 36 -43 -49 54 -21 -38 -45 -51 -56 0
-13 -14 -39 -33 -46 -19 -36 43 49 -54 -21 -38 -45 -51 -56 0
-13 -14 -32 -40 -46 -19 -36 -43 49 54 -21 -38 -45 -51 -56 0
-13 -14 -32 -40 -46 -19 -36 43 -49 54 -21 -38 -45 -51 -56 0
-13 -14 -32 -40 -46 -19 36 -43 49 -54 -21 -38 -45 -51 -56 0
-13 15 39 16 33 40 46 -19 -36 -43 -49 -54 21 -38 -45 51 65 0
-13 31 15 32 39 40 46 -19 -36 -43 -49 -54 -21 38 45 -56 65 0
-14 31 15 -39 17 34 47 18 35 42 57 36 43 49 58 0
31 15 -32 -39 17 41 47 18 35 42 57 19 36 49 61 0
-13 31 15 39 17 34 41 47 18 -35 48 36 43 49 61 0
-14 31 15 32 17 34 -41 47 18 42 48 36 43 49 61 0
31 15 32 17 34 41 47 18 -35 42 -48 19 43 58 61 0
-13 31 15 32 39 17 41 47 18 -35 57 36 43 58 61 0
-13 31 15 -32 39 17 -41 47 -35 42 48 -19 -36 43 49 -58 0
-13 31 15 32 39 17 -41 -47 18 48 -57 19 -36 -43 49 -58 0
-13 31 15 -32 39 -34 41 47 18 -42 48 -19 -36 43 49 -61 0
-14 31 15 32 39 17 47 18 -35 -48 -57 19 -36 -43 49 -61 0
-13 31 15 -39 17 -47 18 35 42 -48 57 19 -36 -43 -49 61 0
-14 31 32 -39 17 34 -41 47 18 -35 57 -19 36 -43 58 -61 0
-13 31 -32 39 17 -34 41 47 18 -42 57 -19 -36 43 58 -61 0
-14 31 15 17 34 41 47 18 -35 -48 -57 19 -36 -43 58 -61 0
-14 31 32 -39 17 -34 18 35 -42 48 57 -19 36 -43 -58 61 0
-14 31 15 17 -34 -47 18 35 42 48 -57 19 -36 -43 -58 61 0
-13 31 32 -39 17 -47 18 35 42 -48 57 -19 36 -49 -58 61 0
-13 31 15 34 -41 -47 18 35 42 48 -57 -19 36 -49 -58 61 0
-14 31 15 32 39 17 47 -35 42 -48 -57 -19 43 49 -58 -61 0
-13 15 32 -39 -34 41 18 -35 42 48 57 -36 -43 49 -58 61 0
-13 31 15 -32 39 17 -41 47 18 -35 19 -36 -43 -49 -58 -61 0
-13 31 15 -39 17 -34 41 47 18 -35 19 -36 -43 -49 -58 -61 0
-14 31 15 -32 17 34 -41 47 18 -42 19 -36 -43 -49 -58 -61 0
-14 31 15 32 -39 17 -41 18 -35 48 19 -36 -43 -49 -58 -61 0
-14 32 -39 17 34 -41 47 -35 42 48 -19 -36 -43 -49 58 -61 0
-14 31 15 -32 17 -41 18 35 -42 48 19 -36 -43 -49 -58 -61 0
-13 -32 39 34 -41 47 18 -35 42 48 -19 -36 -43 -49 -58 61 0
-14 31 15 -39 17 34 -41 18 -35 57 19 -36 -43 -49 -58 -61 0
-13 31 15 -32 17 -41 18 -35 42 57 19 -36 -43 -49 -58 -61 0
-14 31 32 17 -34 -47 18 35 42 -57 -19 36 -43 -49 -58 -61 0
-14 -32 39 17 41 -47 18 35 -48 57 -19 -36 -43 -49 -58 61 0
-14 15 39 -34 41 -47 18 35 48 -57 -19 -36 -43 -49 -58 61 0
-14 -32 39 17 34 -47 18 42 -48 57 -19 -36 -43 -49 58 -61 0
-13 15 -32 39 34 -41 -35 42 48 57 -19 -36 -43 49 -58 -61 0
-13 32 -39 17 -34 41 -35 42 48 57 -19 -36 -43 -49 58 -61 0
-14 15 39 17 34 47 -35 42 -48 -57 -19 -36 -43 -49 58 -61 0
-14 15 32 17 41 47 -35 42 -48 -57 -19 -36 -43 49 -58 -61 0
-14 31 15 32 17 34 41 47 -35 -42 48 -19 -36 43 -49 -58 -61 0
-13 15 39 17 34 41 47 18 -35 -42 48 -19 -36 -43 -49 -58 61 0
-14 31 15 32 39 17 34 47 -35 -42 57 -19 -36 43 -49 -58 -61 0
-14 15 32 39 17 34 47 18 -35 -42 57 -19 -36 -43 -49 -58 61 0
-13 15 32 39 17 41 47 18 -35 -42 57 -19 -36 -43 -49 -58 61 0
-13 15 -32 -39 17 41 47 18 35 42 57 -19 -36 -43 49 -58 -61 0
-13 31 -32 -39 17 34 41 18 42 48 57 -19 36 -43 -49 -58 -61 0
31 15 32 39 17 -34 -41 18 35 48 57 20 44 50 59 0
-13 31 15 39 17 -34 47 18 35 42 48 37 44 50 59 0
-13 31 15 39 -34 -41 47 18 35 42 48 -20 37 -44 -50 -59 -62 0
-13 15 39 17 -34 -41 47 18 35 42 48 -20 -37 -44 -50 59 -62 0
-14 15 32 39 17 -34 -41 18 35 48 57 -20 -37 -44 -50 59 -62 0
-13 31 15 32 39 -34 -41 18 42 48 57 -20 37 -44 -50 -59 -62 0
31 15 -32 -39 17 34 41 18 42 48 57 21 38 51 60 0
31 15 32 39 17 34 -41 18 42 48 -57 21 38 51 60 0
31 15 -32 39 17 34 41 18 35 -48 57 21 45 51 60 0
-14 31 15 32 17 41 47 18 35 -42 48 38 45 51 60 0
-14 31 15 -39 17 34 47 18 35 42 57 38 45 51 60 0
-13 31 15 39 17 -34 41 47 18 35 48 38 45 51 63 0
-13 31 15 -32 39 17 34 18 42 48 57 38 45 60 63 0
-14 31 15 32 -39 17 -34 47 35 -42 48 -21 38 -45 51 -60 0
-13 31 15 32 39 17 -41 -47 18 48 -57 21 -38 -45 51 -60 0
-13 31 15 32 39 17 47 18 -42 -48 -57 21 -38 -45 51 -63 0
-14 31 15 -32 34 -41 18 35 -42 48 57 -21 38 -45 -51 63 0
-14 31 32 -39 17 -34 18 35 -42 48 57 -21 38 -45 -60 63 0
-13 31 -32 39 17 -41 18 -35 42 48 57 -21 -38 45 -60 63 0
-13 31 15 17 -41 -47 18 35 42 48 -57 21 -38 -45 -60 63 0
-14 31 15 -34 41 -47 18 35 42 48 -57 -21 45 -51 -60 63 0
-14 15 32 -39 17 -34 41 47 35 -42 48 -38 -45 51 60 -63 0
-14 32 -39 17 -34 41 18 35 -42 48 57 -38 -45 -51 60 63 0
-13 31 15 -39 17 -34 41 47 18 -35 21 -38 -45 -51 -60 -63 0
-14 31 15 32 -39 17 -34 47 18 -42 21 -38 -45 -51 -60 -63 0
-14 31 15 32 -39 17 -41 18 -35 48 21 -38 -45 -51 -60 -63 0
-13 31 15 -32 39 17 -34 18 -42 48 21 -38 -45 -51 -60 -63 0
-13 -32 39 17 -34 41 47 35 -42 48 -21 -38 -45 -51 60 -63 0
-14 31 15 -32 17 -41 18 35 -42 48 21 -38 -45 -51 -60 -63 0
-14 31 15 -32 34 -47 18 35 42 -48 -21 38 -45 -51 -60 -63 0
-13 31 15 -39 41 -47 18 35 42 -48 -21 -38 45 -51 -60 -63 0
-14 32 -39 -34 41 47 18 35 -42 48 -21 -38 -45 -51 -60 63 0
-13 15 -32 39 -34 41 47 35 -42 57 -21 -38 -45 51 -60 -63 0
-14 31 15 -39 17 -34 18 35 -42 57 21 -38 -45 -51 -60 -63 0
-14 31 15 32 39 34 18 -35 -48 -57 -21 38 -45 -51 -60 -63 0
-14 15 39 -34 41 -47 18 35 48 -57 -21 -38 -45 -51 -60 63 0
-13 15 -32 39 34 -41 -35 42 48 57 -21 -38 -45 51 -60 -63 0
-14 15 32 -39 -34 41 35 -42 48 57 -21 -38 -45 51 -60 -63 0
-13 31 15 39 17 34 41 47 -35 -42 48 -21 38 -45 -51 -60 -63 0
-14 31 -32 -39 17 34 41 18 35 48 57 -21 -38 45 -51 -60 -63 0
-13 31 -32 -39 17 34 41 18 42 48 57 -21 38 -45 -51 -60 -63 0
-13 -14 -32 -41 -47 -19 -36 -43 -49 -58 -20 -37 44 -50 59 0
-13 -14 -39 -34 -47 -19 -36 -43 -49 -58 -21 -38 -45 51 60 0
-13 -14 -39 -34 -47 -19 -36 -43 -49 -58 -21 38 -45 -51 60 0
-13 -14 -39 -34 -47 -19 -36 -43 -49 -58 21 -38 45 -51 -60 0
-13 -14 -39 -34 -47 -19 -36 -43 -49 -58 21 38 -45 -51 -60 0
-13 -14 -39 -34 -47 -19 36 -43 -49 58 -21 -38 -45 -51 -60 0
-13 -14 -39 -34 -47 -19 -36 43 49 -58 -21 -38 -45 -51 -60 0
-13 -14 -32 -41 -47 -19 -36 -43 -49 -58 -21 -38 -45 51 60 0
-13 -14 -32 -41 -47 -19 -36 -43 -49 -58 -21 -38 45 -51 60 0
-13 -14 -32 -41 -47 -19 -36 -43 -49 -58 -21 38 -45 51 -60 0
-13 -14 -32 -41 -47 -19 -36 -43 -49 -58 21 -38 45 -51 -60 0
-14 32 -39 -34 41 47 -19 -36 -43 -49 -58 21 38 -45 51 65 0
-14 31 32 17 34 41 47 -19 36 43 -49 -21 -38 -45 -51 -60 65 0
-13 -14 -39 -35 -48 -19 -36 -43 -49 -61 -20 37 -44 -50 62 0
-13 -14 -39 -35 -48 -19 -36 -43 -49 -61 21 -38 45 -51 -63 0
-13 -14 -39 -35 -48 -19 -36 -43 -49 -61 21 38 -45 -51 -63 0
-13 -14 -39 -35 -48 -19 36 -43 -49 61 -21 -38 -45 -51 -63 0
-13 -14 -32 -42 -48 -19 -36 -43 -49 -61 21 -38 45 -51 -63 0
-13 -14 -32 -42 -48 -19 -36 -43 -49 -61 21 38 -45 -51 -63 0
-13 -14 -32 -42 -48 -19 -36 43 -49 61 -21 -38 -45 -51 -63 0
-13 -14 -32 -42 -48 -19 36 -43 49 -61 -21 -38 -45 -51 -63 0
-13 -14 15 39 42 -48 -19 -36 -43 -49 -61 -21 38 45 63 65 0
-14 15 39 18 -35 -48 -19 -36 -43 -49 -61 38 45 51 -63 65 0
-13 15 32 39 18 42 48 -19 -36 -43 -49 -61 21 -38 -45 63 65 0
-13 -14 32 18 35 -48 -20 37 44 50 -21 -38 -45 -51 -63 66 0
-13 15 32 39 18 42 48 -20 -37 -44 -50 -62 21 -38 -45 63 66 0
31 16 33 40 17 34 -41 18 42 53 -57 19 36 54 58 0
-14 31 16 33 17 41 52 18 35 -42 53 36 43 54 58 0
-13 31 16 -33 17 41 52 18 35 42 57 36 43 54 58 0
-13 31 16 33 17 41 52 18 -35 42 57 36 43 54 58 0
31 16 40 17 34 18 -35 42 53 -57 19 36 43 54 58 0
31 16 33 -40 17 41 -52 18 35 42 57 19 36 54 61 0
31 16 33 40 17 34 52 18 -35 -42 57 19 43 54 61 0
-13 31 16 40 17 34 41 52 18 -35 53 36 43 54 61 0
-14 31 16 33 17 34 41 52 18 -42 53 36 43 54 61 0
-13 31 16 -33 17 34 41 18 42 53 57 36 43 54 61 0
-13 31 16 33 17 -34 41 18 42 53 57 36 43 54 61 0
31 16 40 17 -34 -41 52 18 35 42 53 19 36 58 61 0
-13 31 16 -33 40 17 41 52 18 35 57 36 43 58 61 0
-13 31 16 33 40 17 41 52 18 -35 57 36 43 58 61 0
-13 31 16 -33 40 17 34 18 42 53 57 36 43 58 61 0
-14 31 16 33 -40 17 -34 52 35 -42 53 -19 36 -43 54 -58 0
-14 31 16 -33 17 34 -41 52 35 -42 57 -19 36 -43 -54 58 0
-13 31 16 -40 17 -34 41 52 -35 42 57 -19 -36 43 -54 58 0
-13 31 16 -40 17 34 41 -52 18 -53 57 19 -36 -43 -54 58 0
-14 31 16 33 -40 34 -41 52 18 -35 53 -19 36 -43 54 -61 0
-13 31 16 -33 40 -34 41 52 18 -42 53 -19 -36 43 54 -61 0
-14 31 16 33 40 17 52 18 -35 -53 -57 19 -36 -43 54 -61 0
-14 31 16 -33 34 -41 18 35 -42 53 57 -19 36 -43 -54 61 0
-14 31 16 -33 17 -52 18 35 42 -53 57 19 -36 -43 -54 61 0
-14 31 33 -40 17 34 -41 52 18 -35 57 -19 36 -43 58 -61 0
-13 31 -33 40 17 -41 18 -35 42 53 57 -19 -36 43 -58 61 0
-13 31 16 17 34 41 52 35 -42 -53 -57 -19 36 -54 58 -61 0
-13 31 16 34 -41 -52 18 35 42 53 -57 -19 36 -54 -58 61 0
-14 31 16 33 40 17 52 -35 42 -53 -57 -19 43 54 -58 -61 0
-14 31 16 17 34 41 52 -35 42 -53 -57 -19 43 -54 58 -61 0
-14 31 -33 40 17 -52 18 35 42 -53 57 -19 43 -54 -58 61 0
-13 16 -33 40 17 34 -41 52 -35 42 53 -36 -43 54 58 -61 0
-14 16 33 -40 34 -41 52 18 -35 42 53 -36 -43 54 -58 61 0
-13 16 33 -40 17 -34 41 52 -35 42 57 -36 -43 54 58 -61 0
-13 -33 40 17 34 -41 18 -35 42 53 57 -36 -43 -54 58 61 0
-13 31 16 -40 17 -34 41 52 18 -35 19 -36 -43 -54 -58 -61 0
-14 31 16 -33 17 34 -41 52 18 -42 19 -36 -43 -54 -58 -61 0
-14 31 16 33 -40 17 -41 18 -35 53 19 -36 -43 -54 -58 -61 0
-13 31 16 -40 17 34 41 -52 42 -53 -19 -36 43 -54 -58 -61 0
-13 -33 40 17 -34 41 52 35 -42 53 -19 -36 -43 -54 58 -61 0
-14 33 -40 17 34 -41 52 -35 42 53 -19 -36 -43 -54 58 -61 0
-14 31 16 -33 17 -41 18 35 -42 53 19 -36 -43 -54 -58 -61 0
-14 31 16 -33 34 -52 18 35 42 -53 -19 36 -43 -54 -58 -61 0
-13 31 16 -40 41 -52 18 35 42 -53 -19 -36 43 -54 -58 -61 0
-13 -33 40 34 -41 52 18 -35 42 53 -19 -36 -43 -54 -58 61 0
-14 31 16 33 40 17 -34 -52 35 -57 -19 36 -43 -54 -58 -61 0
-14 31 16 -40 17 34 -41 18 -35 57 19 -36 -43 -54 -58 -61 0
-13 31 16 33 40 17 -41 -52 42 -57 -19 -36 43 -54 -58 -61 0
-13 16 -33 40 -34 41 52 35 -42 57 -19 -36 -43 54 -58 -61 0
-13 31 16 -33 17 -41 18 -35 42 57 19 -36 -43 -54 -58 -61 0
-14 31 33 17 -34 -52 18 35 42 -57 -19 36 -43 -54 -58 -61 0
-13 31 40 17 -41 -52 18 35 42 -57 -19 -36 43 -54 -58 -61 0
-13 33 -40 -34 41 52 18 -35 42 57 -19 -36 -43 -54 -58 61 0
-14 -33 40 34 -41 52 18 35 -42 57 -19 -36 -43 -54 -58 61 0
-14 31 16 33 40 34 18 -35 -53 -57 -19 36 -43 -54 -58 -61 0
-14 31 33 17 34 41 18 -35 -53 -57 -19 36 -43 -54 -58 -61 0
-13 33 -40 17 41 -52 18 35 -53 57 -19 -36 -43 -54 58 -61 0
-13 31 16 33 40 41 18 -42 -53 -57 -19 -36 43 -54 -58 -61 0
-13 31 40 17 34 41 18 -42 -53 -57 -19 -36 43 -54 -58 -61 0
-13 33 -40 17 34 -52 18 42 -53 57 -19 -36 -43 -54 -58 61 0
-14 -33 40 17 34 -52 18 42 -53 57 -19 -36 -43 -54 58 -61 0
-14 16 33 -34 41 -52 18 42 53 -57 -19 -36 -43 54 -58 -61 0
-13 16 -33 40 34 -41 -35 42 53 57 -19 -36 -43 54 -58 -61 0
-14 -33 40 17 34 -41 35 -42 53 57 -19 -36 -43 -54 58 -61 0
-14 16 33 17 41 52 -35 42 -53 -57 -19 -36 -43 54 -58 -61 0
-13 31 16 40 17 34 41 52 -35 -42 53 -19 36 -43 -54 -58 -61 0
-13 31 16 40 -34 -41 52 18 35 42 53 -19 36 -43 -54 -58 -61 0
-14 16 33 17 -34 -41 52 18 35 42 53 -19 -36 -43 -54 58 -61 0
-13 31 16 33 40 17 41 52 -35 -42 57 -19 36 -43 -54 -58 -61 0
-14 31 -33 -40 17 34 52 18 35 42 57 -19 -36 43 -54 -58 -61 0
-14 16 33 40 17 34 52 18 -35 -42 57 -19 -36 -43 -54 -58 61 0
-14 16 -33 -40 17 34 52 18 35 42 57 -19 -36 -43 54 -58 -61 0
-14 31 -33 -40 17 34 41 18 35 53 57 -19 -36 43 -54 -58 -61 0
-13 31 16 33 40 -34 -41 18 42 53 57 -19 36 -43 -54 -58 -61 0
-13 31 -33 -40 17 34 41 18 42 53 57 -19 36 -43 -54 -58 -61 0
-13 31 16 -33 40 17 -41 52 -35 42 53 -20 -37 44 55 -59 0
-14 31 16 -33 17 34 -41 52 35 -42 57 -20 37 -44 -55 59 0
-13 31 -33 -40 17 34 41 18 42 53 57 -20 37 -44 -55 -59 -62 0
-13 31 16 40 17 -34 52 18 35 42 53 38 45 56 60 0
-13 31 16 40 17 34 52 18 -35 42 53 38 45 56 60 0
-14 31 16 33 17 -41 52 18 35 42 53 38 45 56 60 0
-13 31 16 33 17 41 52 18 -35 42 57 38 45 56 60 0
31 16 33 40 17 41 52 18 -35 -42 57 21 38 56 63 0
31 16 -33 -40 17 34 52 18 35 42 57 21 45 56 63 0
-13 31 16 40 17 -34 41 52 18 35 53 38 45 56 63 0
-14 31 16 33 17 34 41 52 18 -42 53 38 45 56 63 0
-13 -14 31 16 17 34 52 18 42 53 38 45 56 60 63 0
-14 31 16 33 -40 17 -34 52 35 -42 53 -21 38 -45 56 -60 0
-13 31 16 -40 17 -34 41 52 -35 42 57 -21 -38 45 -56 60 0
-14 31 16 -33 17 34 41 -52 18 -53 57 21 -38 -45 -56 60 0
-13 31 16 33 40 17 52 18 -42 -53 -57 21 -38 -45 56 -63 0
-13 31 16 -40 -34 41 18 -35 42 53 57 -21 -38 45 -56 63 0
-14 31 16 -33 17 -52 18 35 42 -53 57 21 -38 -45 -56 63 0
-13 31 -33 40 17 -34 41 52 18 -42 57 -21 -38 45 60 -63 0
-13 31 16 17 -41 -52 18 35 42 53 -57 21 -38 -45 -60 63 0
-13 31 16 33 40 17 52 35 -42 -53 -57 -21 38 56 -60 -63 0
-13 31 16 34 -41 -52 18 35 42 53 -57 -21 38 -56 -60 63 0
-14 31 -33 40 17 34 41 -52 18 -53 57 -21 45 -56 60 -63 0
-14 31 -33 40 17 -52 18 35 42 -53 57 -21 45 -56 -60 63 0
-14 16 33 -40 17 -34 41 52 35 -42 53 -38 -45 56 60 -63 0
-14 16 33 -40 34 -41 52 18 -35 42 53 -38 -45 56 -60 63 0
-14 31 16 -33 17 34 -41 52 18 -42 21 -38 -45 -56 -60 -63 0
-14 31 16 -33 17 34 41 -52 35 -53 -21 38 -45 -56 -60 -63 0
-13 31 16 -40 17 -34 18 -35 42 53 21 -38 -45 -56 -60 -63 0
-14 31 16 -33 34 -52 18 35 42 -53 -21 38 -45 -56 -60 -63 0
-14 33 -40 -34 41 52 18 35 -42 53 -21 -38 -45 -56 -60 63 0
-14 31 16 33 40 17 -34 -52 35 -57 -21 38 -45 -56 -60 -63 0
-14 31 16 -40 17 34 -41 18 -35 57 21 -38 -45 -56 -60 -63 0
-13 31 16 -33 17 -34 41 18 -42 57 21 -38 -45 -56 -60 -63 0
-14 16 33 -40 34 -41 52 -35 42 57 -21 -38 -45 56 -60 -63 0
-13 31 16 -33 17 -41 18 -35 42 57 21 -38 -45 -56 -60 -63 0
-14 -33 40 17 41 -52 18 35 -53 57 -21 -38 -45 -56 -60 63 0
-13 33 -40 17 34 -52 18 42 -53 57 -21 -38 -45 -56 -60 63 0
-13 16 33 34 -41 -52 18 42 53 -57 -21 -38 -45 -56 -60 63 0
-13 16 40 17 34 52 35 -42 -53 -57 -21 -38 -45 56 -60 -63 0
-14 16 40 17 34 52 -35 42 -53 -57 -21 -38 -45 -56 60 -63 0
-14 16 33 17 41 52 -35 42 -53 -57 -21 -38 -45 56 -60 -63 0
-14 31 16 33 17 34 41 52 -35 -42 53 -21 -38 45 -56 -60 -63 0
-14 31 16 33 -34 -41 52 18 35 42 53 -21 -38 45 -56 -60 -63 0
-13 31 16 40 -34 -41 52 18 35 42 53 -21 38 -45 -56 -60 -63 0
-13 16 40 17 -34 -41 52 18 35 42 53 -21 -38 -45 -56 60 -63 0
-14 16 -33 -40 17 34 52 18 35 42 57 -21 -38 -45 56 -60 -63 0
-13 16 33 40 17 41 52 18 -35 -42 57 -21 -38 -45 -56 -60 63 0
-13 31 16 33 40 -34 -41 18 42 53 57 -21 38 -45 -56 -60 -63 0
-13 -14 -40 -34 -52 -19 -36 -43 -54 -58 -21 -38 -45 56 60 0
-13 -14 -40 -34 -52 -19 -36 -43 -54 -58 -21 38 -45 -56 60 0
-13 -14 -40 -34 -52 -19 -36 -43 -54 -58 -21 -38 45 56 -60 0
-13 -14 -40 -34 -52 -19 -36 -43 -54 -58 21 38 -45 -56 -60 0
-13 -14 -40 -34 -52 -19 -36 -43 54 58 -21 -38 -45 -56 -60 0
-13 -14 -40 -34 -52 -19 36 -43 -54 58 -21 -38 -45 -56 -60 0
-13 -14 -40 -34 -52 -19 -36 43 54 -58 -21 -38 -45 -56 -60 0
-14 -33 40 34 -41 52 -19 -36 -43 -54 -58 21 38 -45 60 65 0
-14 16 33 40 17 34 52 -19 -36 -43 -54 -58 21 -38 -45 60 65 0
-13 -14 -33 -41 -52 -20 -37 -44 55 59 -21 -38 -45 -56 -60 0
-13 -14 -40 -35 -53 -19 -36 -43 -54 -61 -20 -37 -44 55 62 0
-13 -14 -33 -42 -53 -19 -36 -43 -54 -61 -20 37 -44 55 -62 0
-13 -14 -40 -35 -53 -19 -36 -43 -54 -61 -21 38 -45 -56 63 0
-13 -14 -40 -35 -53 -19 -36 -43 54 61 -21 -38 -45 -56 -63 0
-13 -14 -40 -35 -53 -19 36 -43 -54 61 -21 -38 -45 -56 -63 0
-13 -14 -40 -35 -53 -19 -36 43 54 -61 -21 -38 -45 -56 -63 0
-13 -14 -33 -42 -53 -19 -36 -43 -54 -61 -21 -38 -45 56 63 0
-13 -14 -33 -42 -53 -19 -36 -43 -54 -61 -21 -38 45 -56 63 0
-13 -14 -33 -42 -53 -19 -36 -43 -54 -61 21 -38 45 -56 -63 0
-13 -14 -33 -42 -53 -19 -36 -43 54 61 -21 -38 -45 -56 -63 0
-13 -14 -33 -42 -53 -19 -36 43 -54 61 -21 -38 -45 -56 -63 0
-13 -14 31 -33 35 -42 -53 -19 -36 -54 -21 -45 -56 -63 -65 0
-14 33 -40 -35 42 53 -19 -36 -43 -54 -61 21 38 -45 56 65 0
-14 16 33 18 35 42 53 -19 -36 -43 -54 -61 21 -38 -45 56 65 0
-14 31 16 33 40 35 53 -19 36 43 -61 -21 -38 -45 -56 -63 65 0
-13 -14 -33 -42 -53 -20 -37 44 -55 62 -21 -38 -45 -56 -63 0
-13 -14 -33 -40 -19 -36 -43 -54 -20 -37 55 -21 -45 56 -66 0
-13 -14 41 18 42 -57 -19 -36 -43 -58 -61 -20 37 44 59 64 0
-13 -14 17 41 42 -57 -19 -36 -43 -58 -61 -20 37 44 62 64 0
-13 -14 -41 -35 -57 -19 -36 -43 -58 -61 -21 38 -45 -60 63 0
-13 -14 -41 -35 -57 -19 -36 -43 -58 -61 -21 -38 45 60 -63 0
-13 -14 -41 -35 -57 -19 -36 -43 -58 -61 21 -38 45 -60 -63 0
-13 -14 -41 -35 -57 -19 -36 -43 58 61 -21 -38 -45 -60 -63 0
-13 -14 -41 -35 -57 -19 36 -43 -58 61 -21 -38 -45 -60 -63 0
-13 -14 -34 -42 -57 -19 -36 -43 58 61 -21 -38 -45 -60 -63 0
-14 -34 41 35 -42 57 -19 -36 -43 -58 -61 21 38 -45 63 65 0
-13 31 41 18 35 42 57 -19 -36 -43 -58 -61 -21 38 45 -60 65 0
-13 -14 31 18 35 42 -19 -36 -61 -20 62 -64 -21 38 -45 65 0
15 -32 16 33 17 34 52 18 -35 48 57 19 36 49 54 0
15 32 16 -33 17 34 47 18 -35 53 57 19 36 49 54 0
15 -32 16 33 17 34 52 18 -35 48 53 19 36 49 58 0
15 -32 16 -33 46 17 34 18 35 53 57 19 36 49 58 0
15 32 16 -33 17 34 47 18 -35 48 53 19 36 54 58 0
15 32 16 33 46 17 -34 18 -35 48 57 19 36 54 58 0
15 16 33 46 17 -34 47 18 35 53 -57 36 49 54 58 0
15 32 16 -33 17 -34 47 52 18 35 53 19 36 49 61 0
15 32 16 -33 46 17 -34 52 18 35 57 19 36 49 61 0
15 32 16 -33 17 -34 47 52 18 35 48 19 36 54 61 0
15 32 16 33 46 17 -34 47 18 -35 57 19 36 54 61 0
15 32 16 -33 17 34 47 -52 18 48 53 36 49 54 61 0
15 -32 16 46 17 34 -47 18 35 53 57 36 49 54 61 0
15 32 16 46 17 34 47 18 -35 53 -57 36 49 54 61 0
15 -32 16 -33 46 17 34 47 18 35 53 19 36 58 61 0
15 32 16 33 46 17 -34 -52 18 48 57 36 49 58 61 0
15 -32 16 33 -46 17 47 18 35 53 57 36 49 58 61 0
15 32 16 17 34 47 52 18 -35 -48 53 36 54 58 61 0
15 32 16 -33 -46 17 52 18 35 48 57 36 54 58 61 0
15 32 16 33 46 17 52 18 -35 -48 57 36 54 58 61 0
-13 15 -32 16 46 17 34 -52 18 -35 57 19 -36 -49 -54 58 0
-13 15 -32 16 33 17 -34 52 18 48 -53 19 -36 -49 54 -61 0
-13 15 -32 16 46 17 -34 18 35 -53 57 19 -36 -49 -54 61 0
-13 15 16 -33 17 34 -47 52 18 -35 48 19 -36 -49 58 -61 0
-13 15 32 16 -33 46 17 -47 18 -35 57 19 -36 49 -58 -61 0
-13 15 -32 16 17 34 47 -52 18 -35 53 19 -36 -54 58 -61 0
-13 15 -32 16 33 46 17 -52 18 -35 57 19 -36 54 -58 -61 0
-13 15 -32 16 33 46 17 -34 18 -53 57 19 -36 54 -58 -61 0
-13 15 -32 16 -33 17 34 47 18 53 -57 19 -36 -54 58 -61 0
-13 15 -32 16 46 17 34 -52 -35 48 -19 -36 49 -54 -58 -61 0
-13 15 16 -33 46 -34 52 18 35 -48 -19 -36 -49 54 -58 -61 0
-13 15 -33 17 -34 47 52 18 35 -48 -19 -36 -49 -54 58 -61 0
-13 15 32 16 -33 17 -47 52 -35 53 -19 -36 -49 54 -58 -61 0
-13 15 -32 16 33 -34 47 18 48 -53 -19 -36 49 -54 -58 -61 0
-13 15 32 16 -33 -34 52 18 -48 53 -19 -36 -49 54 -58 -61 0
-13 -32 16 17 34 -52 18 -35 48 53 -19 -36 -49 -54 -58 61 0
-13 15 16 33 -46 17 -34 47 -35 57 -19 -36 -49 -54 58 -61 0
-13 15 32 16 -46 17 -34 52 -35 57 -19 -36 -49 -54 58 -61 0
-13 -32 16 -33 46 17 52 18 35 -57 -19 -36 -49 54 -58 -61 0
-13 -32 16 33 17 -52 18 -35 48 57 -19 -36 -49 -54 -58 61 0
-13 15 32 -33 17 -47 18 -35 53 57 -19 -36 -49 -54 -58 61 0
15 32 16 33 46 17 -34 52 18 -35 -48 -19 36 -49 -54 -58 -61 0
15 32 16 -33 17 34 47 52 18 -35 -48 -19 36 -49 -54 -58 -61 0
15 -32 16 33 17 34 -47 52 18 -35 53 -19 36 -49 -54 -58 -61 0
15 32 16 -33 17 -34 47 52 18 48 -53 -19 -36 -49 54 -58 -61 0
15 32 16 -33 17 -34 -47 18 35 48 53 -19 36 -49 -54 -58 -61 0
15 -32 16 33 17 -34 -52 18 35 48 53 -19 36 -49 -54 -58 -61 0
15 -32 16 33 17 -34 52 18 35 -48 53 -19 36 -49 -54 -58 -61 0
15 32 16 -33 17 47 -52 18 -35 48 53 -19 -36 -49 54 -58 -61 0
15 -32 16 33 17 -47 52 18 -35 48 53 -19 -36 49 -54 -58 -61 0
15 -32 16 17 -34 47 -52 18 35 48 53 -19 -36 -49 -54 58 -61 0
15 16 -33 17 -34 -47 52 18 35 48 53 -19 -36 -49 -54 58 -61 0
15 32 16 -33 46 17 -34 52 18 48 -57 -19 -36 -49 -54 58 -61 0
15 -32 16 -33 46 17 34 52 18 -48 57 -19 -36 49 -54 -58 -61 0
15 -32 16 33 46 17 52 18 -35 48 -57 -19 -36 -49 -54 -58 61 0
15 32 16 46 17 -34 -52 18 -35 48 57 -19 -36 -49 -54 58 -61 0
15 16 33 46 17 -34 52 18 -35 -48 57 -19 -36 -49 -54 -58 61 0
15 -32 16 33 46 17 -34 47 18 53 -57 -19 -36 -49 -54 58 -61 0
15 -32 16 -33 46 17 -47 18 35 53 57 -19 -36 49 -54 -58 -61 0
15 -32 16 -33 17 34 -47 18 35 53 57 -19 36 -49 -54 -58 -61 0
15 32 16 -33 17 47 52 18 35 48 -53 37 50 55 59 0
15 32 16 46 17 -34 52 18 35 48 -57 37 50 55 59 0
15 32 16 -33 17 -34 47 52 18 35 48 20 37 55 62 0
-13 15 -32 16 33 17 -34 52 18 48 -53 20 -37 -50 55 -62 0
-13 15 -32 16 33 -34 47 18 48 -53 -20 -37 50 -55 -59 -62 0
-13 15 32 16 -33 -34 52 18 -48 53 -20 -37 -50 55 -59 -62 0
-13 15 16 33 -46 -34 18 -35 48 57 -20 -37 -50 -55 -59 62 0
-13 15 32 -33 17 -47 18 -35 53 57 -20 -37 -50 -55 -59 62 0
15 32 16 -33 17 -34 47 52 18 48 -53 -20 -37 -50 55 -59 -62 0
15 32 16 -33 46 17 -34 18 35 48 -57 -20 37 -50 -55 -59 -62 0
15 32 16 33 17 -34 47 18 -35 53 57 21 38 51 56 0
15 32 16 33 46 17 -34 18 -35 53 57 21 38 51 60 0
15 -32 16 33 17 34 47 18 -35 48 53 21 38 56 60 0
15 32 16 -33 17 34 47 18 -35 48 53 21 38 56 60 0
15 32 16 -33 17 -34 47 52 18 35 48 21 38 56 63 0
15 16 -33 46 17 34 -52 18 35 48 57 38 51 56 63 0
15 -32 16 46 17 34 -47 18 35 53 57 38 51 56 63 0
15 -32 16 -33 46 17 34 52 18 35 48 21 38 60 63 0
15 32 16 -33 46 17 -34 52 18 35 48 21 38 60 63 0
15 -32 16 33 46 17 -34 47 18 35 53 21 38 60 63 0
15 32 16 -33 46 17 34 47 18 -35 53 21 38 60 63 0
15 16 33 17 -34 47 -52 18 35 48 53 38 51 60 63 0
15 32 16 17 -34 -47 52 18 35 48 53 38 56 60 63 0
15 32 16 17 34 47 52 18 -35 -48 53 38 56 60 63 0
15 32 16 -33 -46 17 34 47 18 53 57 38 56 60 63 0
-13 15 -32 16 46 17 34 -52 18 -35 57 21 -38 -51 -56 60 0
-13 15 32 16 -33 17 -34 47 18 -48 53 21 -38 51 -56 -63 0
-13 15 16 -33 17 34 -47 52 18 -35 48 21 -38 -51 60 -63 0
-13 15 -32 16 -33 17 47 18 35 53 -57 21 -38 -51 -60 63 0
-13 15 -32 16 17 -34 52 18 35 48 -53 21 -38 -56 -60 63 0
-13 15 -32 16 -33 17 52 18 35 48 -57 21 -38 -56 -60 63 0
-13 15 -32 16 -33 17 34 47 18 53 -57 21 -38 -56 60 -63 0
-13 15 -32 16 46 17 34 -52 -35 48 -21 -38 51 -56 -60 -63 0
-13 15 32 16 -33 17 -47 52 -35 53 -21 -38 -51 56 -60 -63 0
-13 -32 16 17 34 -52 18 -35 48 53 -21 -38 -51 -56 -60 63 0
-13 15 16 33 -46 17 -34 47 -35 57 -21 -38 -51 -56 60 -63 0
-13 15 32 16 -46 17 -34 52 -35 57 -21 -38 -51 -56 60 -63 0
-13 15 -32 -33 46 17 47 18 35 -57 -21 -38 51 -56 -60 -63 0
-13 -32 16 -33 46 17 52 18 35 -57 -21 -38 -51 56 -60 -63 0
-13 15 -32 -33 46 17 34 18 48 -57 -21 -38 51 -56 -60 -63 0
-13 15 16 33 -46 -34 18 -35 48 57 -21 -38 -51 -56 -60 63 0
-13 -32 16 -33 46 17 34 18 53 -57 -21 -38 -51 56 -60 -63 0
-13 -32 16 33 17 -34 47 18 -53 57 -21 -38 -51 -56 60 -63 0
15 32 16 33 46 17 -34 -52 18 -35 48 -21 38 -51 -56 -60 -63 0
15 32 16 -33 17 34 47 -52 18 -35 48 -21 38 -51 -56 -60 -63 0
15 32 16 33 46 17 -34 -47 18 -35 53 -21 38 -51 -56 -60 -63 0
15 -32 16 33 17 34 -47 52 18 -35 53 -21 38 -51 -56 -60 -63 0
15 -32 16 33 17 -34 -52 18 35 48 53 -21 38 -51 -56 -60 -63 0
15 -32 16 33 17 -34 52 18 35 -48 53 -21 38 -51 -56 -60 -63 0
15 -32 16 33 17 -47 52 18 -35 48 53 -21 -38 51 -56 -60 -63 0
15 16 -33 17 -34 -47 52 18 35 48 53 -21 -38 -51 -56 60 -63 0
15 -32 16 -33 46 17 34 52 18 -48 57 -21 -38 51 -56 -60 -63 0
15 32 16 -33 46 17 -34 18 35 48 -57 -21 38 -51 -56 -60 -63 0
15 -32 16 33 46 17 52 18 -35 48 -57 -21 -38 -51 -56 -60 63 0
15 -32 16 -33 46 17 -52 18 35 48 57 -21 -38 -51 56 -60 -63 0
15 32 16 46 17 -34 -52 18 -35 48 57 -21 -38 -51 -56 60 -63 0
15 -32 16 -46 17 34 52 18 -35 48 57 -21 -38 51 -56 -60 -63 0
15 -32 16 33 46 17 -34 18 35 53 -57 -21 38 -51 -56 -60 -63 0
15 32 16 -33 46 17 47 18 -35 53 -57 -21 -38 -51 -56 -60 63 0
15 32 16 46 17 -34 47 18 -35 -53 57 -21 -38 -51 -56 -60 63 0
-13 -32 16 33 17 -52 -19 -36 -49 -54 -58 21 -38 51 60 65 0
-13 16 -46 17 34 -52 36 49 -54 58 -21 -38 -51 -56 -60 65 0
15 32 -33 46 18 35 48 -19 -36 -49 -54 -61 -20 37 -55 62 64 0
-13 15 32 -33 18 -48 -19 -36 -49 -54 -61 21 -38 56 63 65 0
-13 16 33 18 -48 -53 -19 -36 -49 -54 -61 38 51 56 -63 65 0
-13 15 32 16 -46 -53 36 49 -54 61 -21 -38 -51 -56 -63 65 0
15 16 33 46 18 -35 53 -19 -36 -49 -54 -61 21 -38 -51 63 65 0
15 32 16 33 46 -35 48 -19 36 54 -61 -21 -38 -51 -56 -63 65 0
15 32 -33 46 18 35 48 -19 36 -54 61 -21 -38 -51 -56 -63 65 0
15 -32 17 18 35 48 57 -19 -36 -49 -58 -61 21 -38 51 -60 65 0
15 32 17 34 47 -35 57 -19 -36 -49 -58 -61 -21 38 51 -63 65 0
-13 16 33 18 -53 -57 36 54 58 -61 -21 -38 -56 -60 -63 65 0
16 17 34 52 18 -35 57 -19 -36 -54 -58 -61 21 -38 -56 63 65 0
15 39 16 40 17 -41 52 18 -42 48 57 19 43 49 54 0
15 -39 16 40 17 -41 47 18 42 53 57 19 43 49 54 0
15 39 16 40 17 -41 47 18 -42 53 57 19 43 49 54 0
15 -39 16 -40 46 17 41 18 42 53 57 19 43 49 58 0
15 39 16 40 46 17 -41 18 -42 53 57 19 43 49 58 0
15 -39 16 40 17 -41 47 18 42 48 53 19 43 54 58 0
15 39 16 40 46 17 -41 18 -42 48 57 19 43 54 58 0
15 -39 16 40 17 -41 47 52 18 42 53 19 43 49 61 0
15 -39 16 -40 46 17 41 52 18 42 57 19 43 49 61 0
15 -39 16 40 17 41 -47 52 18 48 53 43 49 54 61 0
15 39 16 -40 17 41 47 -52 18 48 53 43 49 54 61 0
15 16 -40 46 17 41 -52 18 42 48 57 43 49 54 61 0
15 16 40 46 17 41 52 18 -42 48 -57 43 49 54 61 0
15 -39 16 46 17 41 -47 18 42 53 57 43 49 54 61 0
15 -39 16 -40 46 17 41 52 18 42 48 19 43 58 61 0
15 -39 16 40 46 17 41 52 18 -42 48 19 43 58 61 0
15 -39 16 40 46 17 -41 47 18 42 53 19 43 58 61 0
15 -39 16 40 -46 17 41 52 18 48 57 43 49 58 61 0
15 39 16 17 -41 -47 52 18 42 48 53 43 54 58 61 0
15 39 16 40 46 17 52 18 -42 -48 57 43 54 58 61 0
15 39 16 -40 -46 17 41 47 18 53 57 43 54 58 61 0
-14 15 39 16 -46 17 -41 52 18 -42 48 19 -43 49 -54 -58 0
-14 15 16 40 -46 17 -41 47 18 -42 53 19 -43 -49 54 -58 0
-14 15 -39 16 46 17 41 -52 18 -42 57 19 -43 -49 -54 58 0
-14 15 16 40 -46 17 -41 52 18 -42 48 19 -43 -49 54 -61 0
-14 15 39 16 -46 17 -41 47 18 -42 53 19 -43 49 -54 -61 0
-14 15 39 16 -40 17 -41 47 18 -48 53 19 -43 49 -54 -61 0
-14 15 -39 16 40 17 -41 52 18 48 -53 19 -43 -49 54 -61 0
-14 15 16 -40 17 -41 47 18 42 -48 53 19 -43 -49 -58 61 0
-14 15 -39 16 -40 17 47 18 42 53 -57 19 -43 -49 -58 61 0
-14 15 -39 16 40 46 17 -52 18 -42 57 19 -43 54 -58 -61 0
-14 15 -39 16 40 46 17 -41 18 -53 57 19 -43 54 -58 -61 0
-14 15 -39 16 -40 17 41 47 18 53 -57 19 -43 -54 58 -61 0
-14 15 -39 16 46 17 41 -52 -42 48 -19 -43 49 -54 -58 -61 0
-14 15 -39 16 40 17 47 -52 -42 48 -19 -43 49 -54 -58 -61 0
-14 15 16 -40 46 -41 52 18 42 -48 -19 -43 -49 54 -58 -61 0
-14 15 16 -40 46 17 41 -47 -42 53 -19 -43 -49 54 -58 -61 0
-14 15 39 16 -40 17 -47 52 -42 53 -19 -43 -49 54 -58 -61 0
-14 15 -39 16 46 -41 47 18 42 -53 -19 -43 49 -54 -58 -61 0
-14 15 -39 16 40 -41 47 18 48 -53 -19 -43 49 -54 -58 -61 0
-14 -39 16 17 41 -52 18 -42 48 53 -19 -43 -49 -54 -58 61 0
-14 15 16 40 -46 17 -41 47 -42 57 -19 -43 -49 -54 58 -61 0
-14 15 -39 -40 46 17 47 18 42 -57 -19 -43 49 -54 -58 -61 0
-14 -39 16 -40 46 17 52 18 42 -57 -19 -43 -49 54 -58 -61 0
-14 15 -39 -40 46 17 41 18 48 -57 -19 -43 49 -54 -58 -61 0
-14 15 39 -40 17 -41 52 18 -48 57 -19 -43 -49 -54 58 -61 0
-14 -39 16 40 17 -52 18 -42 48 57 -19 -43 -49 -54 -58 61 0
-14 -39 16 -40 46 17 41 18 53 -57 -19 -43 -49 54 -58 -61 0
-14 -39 16 40 17 -41 47 18 -53 57 -19 -43 -49 -54 58 -61 0
-14 15 39 -40 17 -47 18 -42 53 57 -19 -43 -49 -54 -58 61 0
15 39 16 40 46 17 -41 -52 18 -42 48 -19 43 -49 -54 -58 -61 0
15 39 16 -40 17 41 47 52 18 -42 -48 -19 43 -49 -54 -58 -61 0
15 39 16 -40 46 17 41 47 18 -42 -57 -19 43 -49 -54 -58 -61 0
15 -39 16 40 46 17 41 52 18 -42 -57 -19 43 -49 -54 -58 -61 0
15 39 16 -40 46 17 -41 52 18 48 -57 -19 -43 -49 -54 58 -61 0
15 39 16 -40 -46 17 -41 18 42 48 57 -19 43 -49 -54 -58 -61 0
15 -39 16 -40 46 17 -52 18 42 48 57 -19 -43 -49 54 -58 -61 0
15 -39 16 -40 17 41 52 18 42 -48 57 -19 43 -49 -54 -58 -61 0
15 -39 16 -40 46 17 -47 18 42 53 57 -19 -43 49 -54 -58 -61 0
15 -39 16 -46 17 -41 47 18 42 53 57 -19 -43 49 -54 -58 -61 0
15 16 40 46 17 -41 -47 18 -42 53 57 -19 -43 -49 -54 58 -61 0
15 39 16 -40 17 47 52 18 42 48 -53 44 50 55 59 0
15 39 16 -40 17 -41 47 52 18 42 48 20 44 55 62 0
15 39 16 -40 -46 17 52 18 42 48 57 44 55 59 62 0
-14 15 39 16 -46 17 -41 52 18 -42 48 20 -44 50 -55 -59 0
-14 15 16 40 -46 17 -41 52 18 -42 48 20 -44 -50 55 -62 0
-14 15 -39 16 40 17 -41 52 18 48 -53 20 -44 -50 55 -62 0
-14 -39 16 17 -41 47 52 18 42 -53 -20 -44 -50 -55 59 -62 0
-14 15 -39 16 40 -41 47 18 48 -53 -20 -44 50 -55 -59 -62 0
-14 -39 16 -40 46 17 52 18 42 -57 -20 -44 -50 55 -59 -62 0
15 39 16 40 17 -41 52 18 -42 48 57 21 45 51 56 0
15 -39 16 40 17 -41 47 18 42 53 57 21 45 51 56 0
15 39 16 40 17 -41 47 18 -42 53 57 21 45 51 56 0
15 39 16 -40 17 -41 52 18 42 48 53 21 45 51 60 0
15 -39 16 40 17 41 52 18 -42 48 53 21 45 51 60 0
15 39 16 -40 17 41 52 18 -42 48 53 21 45 51 60 0
15 -39 16 -40 46 17 41 18 42 53 57 21 45 51 60 0
15 39 16 40 46 17 -41 18 -42 53 57 21 45 51 60 0
15 -39 16 40 17 -41 47 18 42 48 53 21 45 56 60 0
15 -39 16 40 17 41 47 18 -42 48 53 21 45 56 60 0
15 -39 16 40 46 17 41 18 -42 48 57 21 45 56 60 0
15 39 16 40 46 17 -41 18 -42 48 57 21 45 56 60 0
14 39 16 40 46 17 -47 18 42 48 57 21 -51 56 60 0
15 39 16 46 17 -41 52 18 42 48 -57 45 51 56 60 0
15 16 40 46 17 -41 47 18 42 53 -57 45 51 56 60 0
15 -39 16 40 17 -41 47 52 18 42 53 21 45 51 63 0
15 39 16 -40 17 -41 47 52 18 42 53 21 45 51 63 0
15 39 16 -40 46 17 -41 52 18 42 57 21 45 51 63 0
15 39 16 40 46 17 -41 52 18 -42 57 21 45 51 63 0
15 -39 16 40 17 -41 47 52 18 42 48 21 45 56 63 0
15 -39 16 40 17 41 47 52 18 -42 48 21 45 56 63 0
15 -39 16 40 17 41 -47 52 18 48 53 45 51 56 63 0
15 16 -40 46 17 41 -52 18 42 48 57 45 51 56 63 0
15 16 40 46 17 41 52 18 -42 48 -57 45 51 56 63 0
15 -39 16 46 17 41 -47 18 42 53 57 45 51 56 63 0
15 -39 16 -40 46 17 41 52 18 42 48 21 45 60 63 0
15 39 16 -40 46 17 -41 52 18 42 48 21 45 60 63 0
15 -39 16 -40 46 17 41 47 18 42 53 21 45 60 63 0
15 -39 16 40 46 17 -41 47 18 42 53 21 45 60 63 0
15 -39 16 40 -46 17 41 52 18 48 57 45 51 60 63 0
15 39 16 17 -41 -47 52 18 42 48 53 45 56 60 63 0
15 39 16 17 41 47 52 18 -42 -48 53 45 56 60 63 0
15 39 16 -40 -46 17 52 18 42 48 57 45 56 60 63 0
15 39 16 40 46 17 -41 -47 18 53 57 45 56 60 63 0
-14 15 39 16 -40 17 -47 52 18 -42 48 21 -45 51 -56 -60 0
-14 15 16 40 -46 17 -41 47 18 -42 53 21 -45 -51 56 -60 0
-14 15 -39 16 40 17 47 -52 18 -42 53 21 -45 -51 56 -60 0
-14 15 16 -40 46 17 41 -47 18 -42 57 21 -45 -51 -56 60 0
-14 15 39 16 -46 17 -41 47 18 -42 53 21 -45 51 -56 -63 0
-14 15 39 16 -40 17 -41 47 18 -48 53 21 -45 51 -56 -63 0
-14 15 -39 16 40 46 17 -52 18 -42 57 21 -45 56 -60 -63 0
-14 15 -39 16 -40 17 52 18 42 48 -57 21 -45 -56 -60 63 0
-14 15 -39 16 40 46 17 -41 18 -53 57 21 -45 56 -60 -63 0
-14 15 -39 16 -40 17 41 47 18 53 -57 21 -45 -56 60 -63 0
-14 15 -39 16 46 17 41 -52 -42 48 -21 -45 51 -56 -60 -63 0
-14 15 16 -40 46 17 41 -47 -42 53 -21 -45 -51 56 -60 -63 0
-14 15 39 16 -40 17 -47 52 -42 53 -21 -45 -51 56 -60 -63 0
-14 15 -40 17 41 -47 18 -42 48 53 -21 -45 -51 -56 -60 63 0
-14 -39 16 17 41 -52 18 -42 48 53 -21 -45 -51 -56 -60 63 0
-14 15 16 40 -46 17 -41 47 -42 57 -21 -45 -51 -56 60 -63 0
-14 -39 16 -40 46 17 52 18 42 -57 -21 -45 -51 56 -60 -63 0
-14 -39 16 40 17 -52 18 -42 48 57 -21 -45 -51 -56 -60 63 0
-14 15 39 -40 17 -47 18 -42 53 57 -21 -45 -51 -56 -60 63 0
15 39 16 40 46 17 -41 47 18 -42 -53 -21 45 -51 -56 -60 -63 0
15 -39 16 40 17 41 -47 52 18 -42 53 -21 45 -51 -56 -60 -63 0
15 39 16 -40 17 -41 -47 18 42 48 53 -21 45 -51 -56 -60 -63 0
15 -39 16 40 17 -47 52 18 -42 48 53 -21 -45 51 -56 -60 -63 0
15 16 -40 17 -41 -47 52 18 42 48 53 -21 -45 -51 -56 60 -63 0
15 39 16 -40 46 17 41 47 18 -42 -57 -21 45 -51 -56 -60 -63 0
15 -39 16 40 -46 17 41 52 18 -42 57 -21 45 -51 -56 -60 -63 0
15 39 16 -40 46 17 -41 18 42 48 -57 -21 45 -51 -56 -60 -63 0
15 -39 16 40 46 17 52 18 -42 48 -57 -21 -45 -51 -56 -60 63 0
15 39 16 46 17 -41 -52 18 -42 48 57 -21 -45 -51 -56 60 -63 0
15 16 40 46 17 -41 52 18 -42 -48 57 -21 -45 -51 -56 -60 63 0
15 -39 16 40 -46 17 -41 18 42 53 57 -21 45 -51 -56 -60 -63 0
15 39 16 -40 46 17 47 18 -42 53 -57 -21 -45 -51 -56 -60 63 0
15 -39 16 -40 17 41 47 18 42 -53 57 -21 45 -51 -56 -60 -63 0
15 16 40 46 17 -41 -47 18 -42 53 57 -21 -45 -51 -56 60 -63 0
15 16 -40 -46 17 41 47 18 -42 53 57 -21 -45 -51 56 -60 -63 0
15 39 -40 17 41 47 52 -19 43 49 -54 -21 -45 -51 -56 -60 65 0
-39 16 40 46 17 41 52 -19 43 -49 58 -21 -45 -51 -56 -60 65 0
-14 15 39 16 -46 -42 -19 -43 -49 -54 -61 21 -45 56 63 65 0
15 39 16 40 46 -42 53 -19 -43 -49 -54 -61 -21 45 51 -63 65 0
15 39 -41 47 18 42 48 -19 43 -58 61 -20 -44 -50 -59 -62 64 0
-14 15 -47 18 42 -48 -19 -43 -49 -58 -61 45 -51 60 63 65 0
-14 17 -47 18 42 -57 -19 -43 -49 -58 -61 45 51 -60 63 65 0
15 -39 17 41 47 18 57 -19 -43 -49 -58 -61 21 -45 51 -63 65 0
-14 16 17 41 -52 -42 -19 -43 -54 -58 -61 21 -45 56 63 65 0
15 16 46 17 52 18 -48 -19 -49 -54 -58 -61 51 56 -60 -63 65 0
15 16 17 -52 18 48 57 -19 -49 -54 -58 -61 -51 -56 60 63 65 0
15 16 17 47 18 -53 57 -19 -49 -54 -58 -61 -51 -56 60 63 65 0
15 16 17 47 52 18 -48 49 -54 58 -61 -21 -51 -56 -60 -63 65 0
15 16 46 17 47 18 -53 49 54 -58 -61 -21 -51 -56 -60 -63 65 0
15 16 17 -47 18 48 53 49 -54 -58 61 -21 -51 -56 -60 -63 65 0
15 16 17 -52 18 48 53 -49 54 -58 61 -21 -51 -56 -60 -63 65 0
15 16 17 52 18 -48 57 -49 -54 58 61 -21 -51 -56 -60 -63 65 0
16 17 52 18 -53 -57 -19 -58 -61 20 -64 21 -56 63 65 66 0
22 23 32 -39 25 40 -46 26 34 47 52 27 35 42 48 0
22 23 31 32 39 25 -46 26 41 -47 52 27 35 48 53 0
22 23 31 24 39 33 -46 34 41 -47 52 27 35 48 53 0
22 23 31 32 39 25 -46 26 34 47 52 27 42 -48 53 0
22 31 24 -39 25 33 46 26 34 41 47 35 42 -48 53 0
22 23 31 32 33 40 46 26 41 -47 -52 27 35 48 57 0
22 23 31 24 25 40 46 34 41 -47 52 27 35 48 -57 0
22 23 31 39 25 40 46 26 34 -47 52 35 42 48 -57 0
22 23 31 32 39 33 46 26 41 -47 -52 27 35 53 57 0
22 23 31 24 39 25 46 34 41 -47 -52 27 35 53 57 0
22 23 31 24 32 33 40 -46 26 47 -52 27 42 53 57 0
22 23 31 24 32 25 40 -46 34 47 -52 35 42 53 57 0
22 23 31 32 39 25 40 46 26 34 -47 27 -48 53 57 0
22 23 31 32 39 25 33 46 26 41 -47 27 -48 53 57 0
22 23 31 24 39 33 40 -46 26 34 52 27 48 -53 57 0
22 23 31 24 39 33 40 46 26 34 -52 27 48 -53 57 0
22 23 31 24 39 25 33 34 41 47 -52 27 48 53 -57 0
22 23 31 32 39 25 33 26 41 -47 52 35 48 53 -57 0
22 23 31 24 32 25 40 46 34 41 -47 42 -48 53 57 0
22 23 31 24 39 25 33 46 34 41 -52 42 48 -53 57 0
22 23 31 32 33 40 46 26 34 47 27 42 -48 -53 57 0
22 23 31 32 33 40 46 26 34 47 27 42 -48 53 -57 0
22 23 31 32 25 33 46 34 41 47 27 42 -48 -53 57 0
22 23 31 24 32 33 46 34 41 52 27 42 48 -53 -57 0
22 23 31 32 39 25 33 34 47 52 27 42 48 -53 -57 0
22 23 31 24 25 40 46 26 34 47 35 42 -48 -53 57 0
22 23 31 24 25 33 46 26 41 47 35 42 -48 53 -57 0
22 23 24 32 39 25 40 26 34 52 35 -42 48 -53 57 0
22 23 31 24 39 25 46 26 34 52 35 42 -48 -53 57 0
22 23 31 24 39 25 46 26 34 52 35 42 48 -53 -57 0
22 23 31 32 -39 25 46 26 41 -47 52 28 36 49 54 0
22 23 31 32 39 25 -46 26 41 -47 52 28 36 49 54 0
22 23 31 24 33 40 -46 26 41 47 -52 28 36 49 54 0
22 23 31 32 25 40 -46 34 41 47 -52 28 36 49 54 0
22 23 31 24 -33 40 46 26 34 47 -52 28 43 49 54 0
22 23 31 24 33 40 -46 26 34 47 -52 28 43 49 54 0
22 23 31 39 25 33 -46 34 41 47 -52 28 43 49 54 0
22 23 31 32 -39 25 40 -46 26 47 52 28 36 49 58 0
22 23 31 24 25 40 46 34 -41 47 -52 28 36 49 58 0
22 23 31 39 33 40 46 26 -34 47 -52 28 43 49 58 0
22 23 31 24 -32 33 40 -46 41 47 52 28 43 49 58 0
22 23 31 24 32 33 40 -46 41 -47 52 28 43 49 58 0
22 23 31 39 25 40 46 -26 34 47 -52 36 43 49 58 0
22 23 31 32 39 25 -40 -46 34 47 52 28 36 54 58 0
22 23 31 24 39 25 46 34 -41 -47 52 28 36 54 58 0
22 23 31 24 32 33 40 -46 26 47 -52 28 43 54 58 0
22 23 31 32 39 40 46 26 34 -47 -52 28 43 54 58 0
22 23 31 32 39 25 -33 -46 41 47 52 28 43 54 58 0
22 23 31 24 32 -25 40 -46 34 47 52 36 43 54 58 0
22 23 31 24 32 25 40 -46 34 47 -52 36 43 54 58 0
22 23 31 24 39 25 33 -46 41 47 -52 36 43 54 58 0
22 23 31 32 -39 25 33 46 26 41 -47 28 49 54 58 0
22 23 31 24 32 -33 40 -46 26 41 52 28 49 54 58 0
22 23 31 -24 39 25 33 -46 34 41 47 36 49 54 58 0
22 23 31 32 39 25 -40 -46 26 34 52 36 49 54 58 0
22 23 31 24 32 -25 40 -46 34 41 52 36 49 54 58 0
22 23 31 24 32 25 -40 46 34 41 -52 36 49 54 58 0
22 23 31 24 32 33 40 -26 41 -47 52 36 49 54 58 0
22 23 31 24 -32 25 40 46 34 41 -47 43 49 54 58 0
22 23 31 24 39 25 -33 46 34 41 -52 43 49 54 58 0
22 23 31 -24 32 -33 -40 46 34 47 -52 -28 36 -43 49 -54 0
22 23 31 -32 -39 40 -46 -26 41 47 52 -28 -36 43 -49 58 0
22 23 31 24 -25 -40 -46 26 -34 47 52 28 -36 -43 -54 58 0
22 23 31 32 -25 33 46 -34 -41 -47 52 -28 36 -43 54 -58 0
22 23 31 24 25 -33 46 -26 34 -41 -47 28 36 -49 -54 -58 0
22 23 31 39 25 -33 -40 -46 -26 41 47 28 43 -49 -54 -58 0
22 23 31 -24 -32 39 25 -40 26 -47 52 28 43 -49 -54 -58 0
22 23 31 -24 39 25 -33 -40 41 47 -52 28 43 -49 -54 -58 0
22 23 31 39 -25 33 -40 -46 -34 41 47 36 43 -49 -54 -58 0
22 23 31 -24 32 -39 40 -46 -34 41 52 36 43 -49 -54 -58 0
22 23 31 -24 32 -39 -33 40 41 -47 52 36 43 -49 -54 -58 0
22 23 31 -24 -39 -33 40 46 26 -47 28 -36 -43 -49 -54 -58 0
23 24 32 -25 -33 40 -46 26 -41 47 -28 -36 -43 49 -54 -58 0
31 24 32 33 -40 46 -26 -34 41 -47 -28 -36 -43 49 -54 -58 0
22 -24 32 -39 25 40 -46 26 -34 52 -28 -36 -43 -49 54 -58 0
22 23 31 24 -25 -40 -46 -34 41 52 28 -36 -43 -49 -54 -58 0
23 24 -39 25 33 46 -26 -34 41 -52 -28 -36 -43 -49 54 -58 0
22 23 31 32 -39 25 -26 -34 47 -52 28 -36 -43 -49 -54 -58 0
22 23 31 24 -39 33 -26 -34 47 -52 -28 36 -43 -49 -54 -58 0
22 23 31 24 33 -40 -26 -34 -47 52 28 -36 -43 -49 -54 -58 0
22 23 31 24 -32 40 -26 -41 47 -52 -28 -36 43 -49 -54 -58 0
22 23 31 24 -33 40 -26 -41 -47 52 28 -36 -43 -49 -54 -58 0
22 23 31 24 39 25 33 -46 34 -41 -47 -28 -36 -43 49 -54 -58 0
22 23 31 24 -39 33 40 -46 26 34 -52 -28 -36 -43 -49 54 -58 0
22 23 31 24 32 33 40 -46 26 -41 -52 -28 -36 -43 -49 54 -58 0
22 23 31 24 39 25 33 -46 -34 41 -52 -28 -36 -43 -49 54 -58 0
22 23 31 24 32 25 -40 46 34 -47 -52 -28 -36 -43 -49 54 -58 0
22 23 31 32 39 -25 33 26 41 -47 -52 -28 -36 -43 -49 -54 58 0
22 23 31 39 25 -33 -46 26 41 -47 52 -28 -36 -43 -49 54 -58 0
22 23 31 32 33 40 -46 -26 41 -47 52 -28 -36 -43 -49 -54 58 0
22 23 31 24 32 25 -46 34 -41 47 -52 -28 -36 -43 -49 -54 58 0
22 23 31 -24 32 40 -46 34 41 47 -52 -28 -36 -43 49 -54 -58 0
22 23 31 -32 39 25 33 -46 26 47 52 29 44 50 59 0
22 23 31 24 25 33 46 -34 41 47 -52 29 44 50 59 0
22 23 31 39 25 40 46 26 34 -47 -52 37 44 50 59 0
22 23 31 32 39 40 46 26 -34 -47 52 29 44 55 59 0
22 23 31 32 39 40 46 26 34 -47 -52 29 44 55 59 0
22 23 31 24 32 25 46 34 41 -47 -52 29 44 55 59 0
22 23 31 32 39 25 40 26 -34 -47 52 44 50 55 59 0
22 23 31 39 -25 40 46 -34 -41 -47 52 -29 -37 44 55 -59 0
22 23 31 24 -39 25 46 -26 -34 41 -52 29 44 -50 -55 -59 0
22 23 31 -24 -39 40 -46 26 -34 47 -29 -37 44 -50 -55 -59 0
23 -24 -32 39 25 33 -46 26 -41 52 -29 -37 -44 -50 55 -59 0
22 23 31 32 39 25 33 -46 26 -41 -47 -29 -37 -44 50 -55 -59 0
22 23 31 32 25 33 -46 26 -41 -47 52 -29 -37 -44 -50 -55 59 0
22 23 31 24 32 25 -40 34 41 -47 -52 -29 -37 -44 -50 -55 59 0
22 23 31 24 33 -40 46 26 41 47 -52 30 38 51 56 0
22 23 31 39 25 33 -46 34 41 47 -52 30 45 51 56 0
22 23 31 24 32 40 -46 34 41 -47 52 30 45 51 56 0
22 23 31 -24 39 33 46 26 34 -47 52 38 45 51 56 0
22 23 31 39 25 33 -46 26 41 47 -52 38 45 51 56 0
22 23 31 24 25 40 46 34 41 -47 -52 30 38 51 60 0
22 23 31 -32 39 25 33 -46 26 47 52 30 45 51 60 0
22 23 31 39 33 40 46 26 34 -47 -52 30 45 51 60 0
22 23 31 -24 39 25 33 -46 34 47 52 38 45 51 60 0
22 23 31 39 25 40 46 -26 34 47 -52 38 45 51 60 0
22 23 31 32 39 25 40 -46 34 47 -52 30 38 56 60 0
22 23 31 32 39 33 46 26 -41 -47 52 30 38 56 60 0
22 23 31 32 39 40 46 26 34 -47 -52 30 45 56 60 0
22 23 31 32 39 25 33 -46 41 47 -52 30 45 56 60 0
22 23 31 24 39 25 33 -46 41 47 -52 38 45 56 60 0
22 23 31 24 39 33 -40 -46 26 34 52 30 51 56 60 0
22 31 24 32 -39 40 -46 26 34 41 52 30 51 56 60 0
22 23 31 32 39 25 -40 -46 26 34 52 38 51 56 60 0
22 23 31 24 39 25 -33 46 34 41 -52 45 51 56 60 0
22 23 31 24 39 33 40 26 -34 47 -52 45 51 56 60 0
22 23 31 -24 -39 -33 40 46 41 -47 52 -30 -38 45 -51 56 0
22 23 31 -24 39 -33 -40 46 41 47 -52 -30 -38 45 51 -56 0
22 23 31 24 -32 -25 33 -40 26 47 -52 30 38 -51 -56 -60 0
22 23 31 24 25 -40 46 -26 -34 41 -47 30 45 -51 -56 -60 0
22 23 31 39 -25 40 46 26 -34 -41 -47 30 45 -51 -56 -60 0
22 23 31 24 -32 -39 40 -46 -26 41 52 30 45 -51 -56 -60 0
22 23 31 24 -39 25 46 -26 -34 41 -52 30 45 -51 -56 -60 0
22 23 31 -24 39 40 46 26 -34 -41 -52 30 45 -51 -56 -60 0
22 23 31 -24 39 25 -33 -40 41 47 -52 30 45 -51 -56 -60 0
22 23 31 39 -33 40 46 -26 34 -41 -47 38 45 -51 -56 -60 0
22 23 31 -32 39 40 46 -26 34 -41 -52 38 45 -51 -56 -60 0
22 23 31 -24 -39 -33 40 46 26 -47 30 -38 -45 -51 -56 -60 0
22 23 31 -32 -39 -25 40 46 34 -47 -30 38 -45 -51 -56 -60 0
22 24 39 -25 33 -40 -46 26 -34 47 -30 -38 -45 51 -56 -60 0
22 23 31 -32 -39 -25 33 46 41 -47 -30 -38 45 -51 -56 -60 0
22 23 31 -32 -39 33 -46 -26 41 47 -30 38 -45 -51 -56 -60 0
23 24 32 -25 -33 40 -46 26 -41 47 -30 -38 -45 51 -56 -60 0
31 24 32 -25 -33 40 -46 34 -41 47 -30 -38 -45 51 -56 -60 0
23 24 32 25 -40 46 -26 -34 41 -47 -30 -38 -45 51 -56 -60 0
31 24 32 33 -40 46 -26 -34 41 -47 -30 -38 -45 51 -56 -60 0
22 23 31 24 -32 -25 -40 46 41 -52 -30 -38 45 -51 -56 -60 0
22 23 31 32 -33 -40 -46 -26 41 52 -30 38 -45 -51 -56 -60 0
31 -24 -32 39 25 33 -46 34 -41 52 -30 -38 -45 -51 56 -60 0
31 -32 39 25 40 46 -26 34 -41 -52 -30 -38 -45 -51 56 -60 0
22 -24 32 33 40 46 26 -34 -41 -52 -30 -38 -45 -51 56 -60 0
23 -24 39 33 40 46 26 -34 -41 -52 -30 -38 -45 -51 56 -60 0
22 23 31 32 25 -40 -26 -34 -47 52 -30 38 -45 -51 -56 -60 0
22 23 31 24 33 -40 -26 -34 -47 52 30 -38 -45 -51 -56 -60 0
23 24 -39 -25 -33 40 26 34 47 -52 -30 -38 -45 -51 -56 60 0
22 23 31 39 25 -33 -26 -41 -47 52 -30 -38 45 -51 -56 -60 0
22 23 31 24 -32 40 -26 -41 47 -52 -30 -38 45 -51 -56 -60 0
22 23 31 24 -33 40 -26 -41 -47 52 30 -38 -45 -51 -56 -60 0
22 23 31 -24 39 33 -34 -41 47 -52 -30 38 -45 -51 -56 -60 0
22 24 -32 -39 -25 33 34 41 -47 52 -30 -38 -45 -51 -56 60 0
22 23 31 32 -39 25 40 -46 26 34 -52 -30 -38 -45 -51 56 -60 0
22 23 31 32 39 25 40 -46 -26 34 -52 -30 -38 -45 -51 56 -60 0
22 23 31 -32 39 25 33 -46 26 41 -52 -30 -38 -45 -51 56 -60 0
22 23 31 24 32 33 40 -46 26 -41 -52 -30 -38 -45 -51 56 -60 0
22 23 31 -24 39 25 33 -46 34 41 -52 -30 -38 -45 -51 56 -60 0
22 23 31 -24 32 25 40 -46 34 41 -52 -30 -38 -45 -51 56 -60 0
22 23 31 24 33 -40 -46 26 34 -47 52 -30 -38 -45 -51 56 -60 0
22 23 31 24 32 33 -46 26 -41 47 -52 -30 -38 -45 -51 -56 60 0
22 23 31 -24 39 33 -46 34 41 47 -52 -30 -38 -45 51 -56 -60 0
22 23 31 32 -39 25 46 27 42 -48 53 28 36 49 54 0
22 23 31 32 39 25 -46 27 35 -48 53 28 43 49 54 0
22 23 31 24 33 40 -46 27 35 48 -53 28 43 49 54 0
22 23 31 39 25 -33 46 35 42 48 -53 28 43 49 54 0
22 23 31 32 -25 40 46 27 35 48 -53 36 43 49 54 0
22 23 31 32 25 40 -46 27 35 48 -53 36 43 49 54 0
22 23 31 32 33 40 46 27 -42 48 -53 28 36 49 61 0
22 23 31 24 25 33 46 -35 42 48 -53 28 43 49 61 0
22 23 31 24 25 33 46 35 42 -48 -53 28 43 49 61 0
22 23 31 24 39 25 46 35 -42 -48 53 28 36 54 61 0
22 23 31 24 32 -33 40 -46 27 48 53 28 43 54 61 0
22 23 31 32 39 40 46 27 35 -48 -53 28 43 54 61 0
22 23 31 24 32 25 46 -35 42 -48 53 28 43 54 61 0
22 23 31 24 32 25 46 35 42 -48 -53 28 43 54 61 0
22 23 31 24 39 40 46 -27 35 -48 53 36 43 54 61 0
22 23 31 24 39 -25 33 -46 42 48 53 36 43 54 61 0
22 23 31 24 -39 25 33 46 35 42 -48 36 49 54 61 0
22 23 31 32 39 25 40 -27 35 48 -53 43 49 54 61 0
22 23 31 -24 -39 25 -33 46 27 -48 53 28 -36 -43 -49 54 0
22 23 31 -32 -39 -25 33 46 35 -48 53 -28 36 -43 -49 54 0
22 23 31 24 -32 25 46 -27 -42 48 -53 28 -36 -43 49 -61 0
22 23 31 -24 32 -39 25 -46 27 -35 53 28 36 -49 -54 -61 0
22 23 31 -24 32 -39 25 -33 27 -48 53 28 36 -49 -54 -61 0
22 23 31 24 -32 -25 33 -40 27 48 -53 28 36 -49 -54 -61 0
22 23 31 24 25 -40 46 -27 -35 42 -48 28 43 -49 -54 -61 0
22 23 31 -24 39 40 46 27 -35 -42 -53 28 43 -49 -54 -61 0
22 23 31 32 -25 -33 40 -46 35 -42 48 36 43 -49 -54 -61 0
22 23 31 32 33 -40 46 -27 -35 42 -48 36 43 -49 -54 -61 0
22 23 31 -24 -32 39 33 -46 35 -42 53 36 43 -49 -54 -61 0
22 23 31 32 -39 33 46 -27 -35 42 -53 36 43 -49 -54 -61 0
22 23 31 -24 -32 33 -40 46 27 -48 28 -36 -43 -49 -54 -61 0
22 23 31 -24 -39 25 -33 46 42 -48 -28 -36 43 -49 -54 -61 0
22 23 31 -24 -32 33 -46 27 -42 48 -28 36 -43 -49 -54 -61 0
22 24 39 25 -33 46 -27 35 -42 -48 -28 -36 -43 49 -54 -61 0
22 32 39 -25 33 46 27 -35 -42 -48 -28 -36 -43 49 -54 -61 0
22 23 31 -32 39 -25 -40 46 27 -53 28 -36 -43 -49 -54 -61 0
22 23 31 -24 39 -33 -40 46 35 -53 -28 36 -43 -49 -54 -61 0
22 23 31 39 -33 -40 -46 -27 35 53 -28 -36 43 -49 -54 -61 0
31 -32 39 25 40 46 -27 35 -42 -53 -28 -36 -43 -49 54 -61 0
22 23 31 32 -39 25 -27 -35 48 -53 28 -36 -43 -49 -54 -61 0
22 -24 32 -39 25 -33 27 42 -48 53 -28 -36 -43 -49 -54 61 0
22 23 31 39 -25 33 -35 -42 -48 53 -28 -36 43 -49 -54 -61 0
22 23 31 -24 32 40 -35 -42 48 -53 -28 -36 43 -49 -54 -61 0
23 24 -32 -39 -25 40 35 42 -48 53 -28 -36 -43 -49 -54 61 0
22 23 31 24 39 -25 33 -46 35 42 -48 -28 -36 -43 49 -54 -61 0
22 23 31 24 39 25 33 -46 35 -42 -48 -28 -36 -43 49 -54 -61 0
22 23 31 24 32 25 40 -46 -35 42 -48 -28 -36 -43 49 -54 -61 0
22 23 31 24 -39 33 40 -46 27 35 -53 -28 -36 -43 -49 54 -61 0
22 23 31 32 -39 25 33 46 27 -48 -53 -28 -36 -43 49 -54 -61 0
22 23 31 24 39 -33 40 46 27 -48 -53 -28 -36 -43 -49 54 -61 0
22 23 31 -32 39 25 40 27 35 -48 -53 -28 -36 -43 -49 -54 61 0
22 23 31 32 -39 25 33 27 42 -48 -53 -28 -36 -43 -49 -54 61 0
22 23 31 24 -39 25 33 35 42 -48 -53 -28 -36 -43 -49 -54 61 0
22 23 31 24 32 25 -46 35 -42 48 -53 -28 -36 -43 -49 -54 61 0
22 23 31 24 39 25 -46 -35 42 48 -53 -28 -36 -43 -49 -54 61 0
22 23 31 39 25 33 -46 35 42 48 -53 29 44 50 55 0
22 23 31 32 39 40 46 27 -35 -48 53 29 44 55 62 0
22 23 31 32 39 25 33 -46 42 48 -53 29 44 55 62 0
22 23 31 24 32 25 46 -35 42 -48 53 29 44 55 62 0
22 23 31 -24 39 25 33 -46 35 42 48 37 50 55 62 0
22 23 31 -32 -39 -25 40 46 42 -48 53 -29 -37 44 -50 55 0
22 23 31 32 39 25 33 -46 -27 42 -53 -29 -37 -44 -50 55 -62 0
22 23 31 32 39 33 -46 -27 42 48 -53 -29 -37 -44 -50 -55 62 0
22 23 31 -24 39 33 -46 35 42 48 -53 -29 -37 -44 50 -55 -62 0
22 23 31 24 33 -40 46 27 42 48 -53 30 38 51 56 0
22 23 31 39 25 33 -46 35 42 48 -53 30 45 51 56 0
22 23 31 24 32 40 -46 35 42 -48 53 30 45 51 56 0
22 23 31 24 39 33 -46 27 35 -48 53 38 45 51 56 0
22 23 31 32 33 40 46 27 42 -48 -53 30 38 51 63 0
22 23 31 32 39 25 33 -46 27 -48 53 30 45 51 63 0
22 23 31 -24 32 25 40 -46 42 48 53 38 45 51 63 0
22 23 31 24 39 33 40 -46 27 48 -53 30 38 56 63 0
22 23 31 32 39 25 -40 -46 35 48 53 30 38 56 63 0
22 23 31 32 39 25 40 -46 35 48 -53 30 38 56 63 0
22 23 31 32 39 33 46 27 42 -48 -53 30 38 56 63 0
22 23 31 24 39 25 46 35 42 -48 -53 30 38 56 63 0
22 23 31 24 32 -33 40 -46 27 48 53 30 45 56 63 0
22 23 31 24 32 33 40 -46 27 48 -53 30 45 56 63 0
22 23 31 32 39 25 33 -46 42 48 -53 30 45 56 63 0
22 23 31 24 39 25 33 -46 42 48 -53 38 45 56 63 0
22 23 31 24 39 33 -40 -46 27 35 53 30 51 56 63 0
22 23 31 32 39 25 -40 -46 27 35 53 38 51 56 63 0
22 23 31 24 -32 33 40 -46 27 42 48 45 51 56 63 0
22 23 31 24 39 33 40 -27 35 -48 53 45 51 56 63 0
22 23 31 -24 -32 25 -40 46 27 -48 53 30 -38 -45 -51 56 0
22 23 31 24 -32 -25 -40 46 27 48 -53 30 -38 -45 51 -56 0
22 23 31 -32 39 -25 -40 46 42 48 -53 -30 -38 45 51 -56 0
22 23 31 -24 -39 -33 40 46 42 -48 53 -30 -38 45 -51 56 0
22 23 31 -24 39 -33 -40 46 42 48 -53 -30 -38 45 51 -56 0
22 23 31 -24 -39 25 -46 27 -35 48 53 30 -38 -45 -51 63 0
22 23 31 24 -32 25 46 -27 -42 48 -53 30 -38 -45 51 -63 0
22 23 31 -24 32 33 46 -35 -42 48 -53 -30 38 -45 51 -63 0
22 23 31 32 -25 -33 -46 35 -42 48 53 -30 38 -45 -56 63 0
22 23 31 32 25 -33 -40 -46 -27 35 48 30 38 -51 -56 -63 0
22 23 31 24 25 -33 46 -27 35 -42 -48 30 38 -51 -56 -63 0
22 23 31 -24 32 33 46 27 -35 -42 -53 30 38 -51 -56 -63 0
22 23 31 24 -32 -25 33 -40 27 48 -53 30 38 -51 -56 -63 0
22 23 31 24 -25 -33 40 -46 27 -42 48 30 45 -51 -56 -63 0
22 23 31 24 -39 -25 -33 40 27 48 -53 30 45 -51 -56 -63 0
22 23 31 32 -39 33 46 -27 -35 42 -53 38 45 -51 -56 -63 0
22 23 31 -24 32 -39 -33 40 42 -48 53 38 45 -51 -56 -63 0
22 23 31 -32 -39 -25 33 46 42 -48 -30 -38 45 -51 -56 -63 0
22 23 31 -32 -39 33 -46 -27 42 48 -30 38 -45 -51 -56 -63 0
23 24 32 -25 -33 40 -46 27 -42 48 -30 -38 -45 51 -56 -63 0
22 23 31 -32 39 -25 -40 46 27 -53 30 -38 -45 -51 -56 -63 0
22 23 31 24 -32 -25 -40 46 42 -53 -30 -38 45 -51 -56 -63 0
22 23 31 -24 32 -33 -40 46 42 -53 -30 -38 45 -51 -56 -63 0
23 24 -32 -39 33 40 -46 -27 42 53 -30 -38 -45 -51 56 -63 0
22 23 31 24 -25 -33 -46 35 -42 53 30 -38 -45 -51 -56 -63 0
22 23 31 24 -25 -40 -46 -35 42 53 30 -38 -45 -51 -56 -63 0
22 23 31 24 -39 33 -27 -35 48 -53 -30 38 -45 -51 -56 -63 0
22 -24 32 -39 25 -33 27 42 -48 53 -30 -38 -45 -51 -56 63 0
22 23 31 39 -25 33 -35 -42 -48 53 -30 -38 45 -51 -56 -63 0
22 23 31 32 39 25 -40 -46 27 35 -48 -30 -38 -45 51 -56 -63 0
22 23 31 24 39 33 -40 -46 27 35 -48 -30 -38 -45 51 -56 -63 0
22 23 31 24 32 -25 40 -46 35 42 -48 -30 -38 -45 51 -56 -63 0
22 23 31 32 -39 25 -46 27 35 48 -53 -30 -38 -45 51 -56 -63 0
22 23 31 24 -39 33 -46 27 35 48 -53 -30 -38 -45 51 -56 -63 0
22 23 31 32 25 -40 -46 27 35 -48 53 -30 -38 -45 -51 56 -63 0
22 23 31 24 33 -40 -46 27 35 -48 53 -30 -38 -45 -51 56 -63 0
22 23 31 39 33 40 -46 -27 35 -48 53 -30 -38 -45 -51 -56 63 0
22 23 31 -24 32 33 40 46 42 -48 -53 -30 -38 -45 51 -56 -63 0
22 23 31 24 32 25 -46 35 -42 48 -53 -30 -38 -45 -51 -56 63 0
22 23 31 24 39 25 -46 -35 42 48 -53 -30 -38 -45 -51 -56 63 0
22 23 31 32 -39 25 33 -28 -36 -43 -49 -54 29 44 -50 -55 64 0
22 23 24 32 25 -40 46 -28 -36 -43 -49 -54 -37 -44 50 55 64 0
23 -24 -32 39 25 -40 -28 -36 -43 -49 -54 30 38 -51 56 65 0
31 -24 -32 39 33 -40 28 36 -49 54 -30 -38 -45 -51 -56 65 0
22 23 31 -24 39 33 40 -28 -36 -43 -49 -54 30 38 -51 -56 65 0
22 23 31 32 -39 25 33 -28 -36 -43 -49 -54 30 45 -51 -56 65 0
22 23 31 24 32 33 -40 -28 -36 -43 -49 -54 30 45 -51 -56 65 0
22 31 32 39 -25 33 46 -28 -36 -43 -49 -54 -30 -45 51 56 65 0
22 23 31 24 -39 25 33 -28 -36 -43 -49 -54 38 45 -51 -56 65 0
22 23 31 24 39 25 -33 -28 -36 -43 -49 -54 38 45 -51 -56 65 0
22 23 31 -32 39 25 40 29 37 -50 -55 -30 -38 -45 -51 -56 66 0
22 23 31 32 26 41 -47 35 42 48 -57 28 36 49 58 0
22 23 31 39 26 -34 47 35 42 48 -57 28 43 49 58 0
22 23 31 39 26 34 -47 35 42 48 -57 28 43 49 58 0
22 23 31 32 -26 41 47 27 35 48 -57 36 43 49 58 0
22 23 31 32 26 41 -47 27 35 48 -57 36 43 49 58 0
22 23 31 39 26 41 47 -27 35 48 -57 36 43 49 61 0
22 23 31 -24 32 26 41 -47 42 48 57 36 43 49 61 0
22 23 31 24 32 26 41 -47 42 -48 57 36 43 49 61 0
22 23 31 24 39 26 47 35 -42 -48 57 28 36 58 61 0
22 23 31 24 39 26 47 35 42 -48 -57 28 36 58 61 0
22 23 31 32 39 26 34 -47 42 48 -57 28 43 58 61 0
22 23 31 24 32 26 47 -35 42 -48 57 28 43 58 61 0
22 23 31 24 32 26 47 35 42 -48 -57 28 43 58 61 0
22 23 31 24 39 41 47 -27 35 -48 57 36 43 58 61 0
22 23 31 24 39 26 34 -47 42 48 -57 36 43 58 61 0
22 23 31 24 32 -26 41 -47 35 42 57 36 49 58 61 0
22 23 31 24 39 34 41 -27 35 -48 57 43 49 58 61 0
22 23 31 -32 -39 34 -47 -27 35 48 57 -28 36 -43 -49 61 0
22 23 31 24 -26 -41 -47 27 -35 48 57 28 -36 -43 -58 61 0
22 23 31 32 -26 -34 -47 35 -42 48 57 -28 36 -43 -58 61 0
22 23 31 39 -26 -41 -47 -35 42 48 57 -28 -36 43 -58 61 0
22 23 31 24 -26 34 -41 -47 27 -35 48 28 36 -49 -58 -61 0
22 23 31 32 -26 34 47 27 -35 -42 -48 28 36 -49 -58 -61 0
22 23 31 -24 39 41 47 27 -35 -42 -57 28 43 -49 -58 -61 0
22 23 31 -24 -32 39 26 -41 27 -48 57 28 43 -49 -58 -61 0
22 23 31 32 -26 -34 41 -47 35 -42 48 36 43 -49 -58 -61 0
22 23 31 -24 -32 26 -41 47 35 -48 -28 36 -43 -49 -58 -61 0
22 23 31 -32 -39 41 -47 -27 35 48 -28 -36 43 -49 -58 -61 0
22 23 31 -32 -39 34 -47 -27 42 48 -28 36 -43 -49 -58 -61 0
23 32 39 26 -34 -41 -47 -27 42 48 -28 -36 -43 49 -58 -61 0
31 24 32 -26 -34 41 -47 35 -42 48 -28 -36 -43 49 -58 -61 0
23 24 32 26 -41 47 -27 -35 42 -48 -28 -36 -43 49 -58 -61 0
22 23 31 24 -39 -26 -34 47 35 -57 -28 36 -43 -49 -58 -61 0
22 23 31 39 -34 -41 -47 -27 35 57 -28 -36 43 -49 -58 -61 0
22 24 -32 -39 34 41 -47 -27 35 57 -28 -36 -43 -49 58 -61 0
31 32 -39 26 34 47 -27 -35 42 -57 -28 -36 -43 -49 58 -61 0
31 -24 32 -39 -34 41 27 42 -48 57 -28 -36 -43 -49 -58 61 0
22 23 31 24 39 34 -41 -47 27 35 -48 -28 -36 -43 49 -58 -61 0
22 23 31 24 32 -26 41 -47 35 42 -48 -28 -36 -43 49 -58 -61 0
22 23 31 24 -32 26 41 47 42 -48 -57 -28 -36 -43 49 -58 -61 0
22 23 31 32 26 34 -47 27 -42 -48 57 -28 -36 -43 -49 -58 61 0
22 23 31 -24 39 34 -47 35 42 48 -57 -28 -36 -43 49 -58 -61 0
22 23 31 32 -26 41 -47 35 42 -48 57 -28 -36 -43 -49 58 -61 0
22 23 31 32 26 -41 47 35 42 48 -57 29 37 50 59 0
22 23 31 -24 39 26 34 -47 35 48 57 37 44 50 62 0
22 23 31 -24 39 -34 -41 47 35 -57 -29 37 -44 -50 -59 -62 0
22 23 31 24 32 34 41 -47 -27 42 -48 -29 -37 -44 50 -59 -62 0
22 23 31 24 34 -41 47 27 42 48 -57 30 38 51 60 0
22 23 31 32 26 -41 47 35 42 48 -57 30 38 51 60 0
22 23 31 -32 39 26 47 27 35 -48 57 30 45 51 60 0
22 23 31 32 39 26 -47 27 35 -48 57 30 45 51 60 0
22 23 31 24 39 34 41 -47 35 -48 57 30 38 51 63 0
22 23 31 32 34 41 47 27 -42 48 -57 30 38 51 63 0
22 23 31 24 26 34 47 35 42 -48 -57 30 45 51 63 0
22 23 31 24 32 26 41 -47 42 -48 57 38 45 51 63 0
22 23 31 32 39 34 47 27 -42 -48 57 30 38 60 63 0
22 23 31 24 32 34 41 -47 27 48 -57 30 45 60 63 0
22 23 31 32 39 41 47 27 35 -48 -57 30 45 60 63 0
22 23 31 24 32 26 47 -35 42 -48 57 30 45 60 63 0
22 23 31 24 32 26 47 35 42 -48 -57 30 45 60 63 0
22 23 31 24 39 41 47 27 35 -48 -57 38 45 60 63 0
22 23 31 24 32 34 47 27 42 -48 -57 38 45 60 63 0
22 23 31 -32 39 26 34 -47 27 42 48 30 51 60 63 0
22 23 31 24 39 -34 41 47 27 35 -57 30 51 60 63 0
22 23 31 24 39 26 34 -35 42 48 -57 30 51 60 63 0
22 23 31 24 -32 -26 -41 47 27 48 -57 30 -38 -45 51 -60 0
22 23 31 -24 -39 41 -47 -35 42 48 57 -30 -38 45 -51 63 0
22 23 31 -24 39 41 47 -35 -42 48 -57 -30 -38 45 51 -63 0
22 23 31 24 26 -34 47 -27 -42 -48 57 30 -38 -45 60 -63 0
22 23 31 -24 32 26 -34 -41 35 48 -57 30 38 -51 -60 -63 0
22 23 31 39 -26 41 47 27 -35 -42 -48 30 45 -51 -60 -63 0
22 23 31 -24 -32 39 26 -47 27 -42 57 30 45 -51 -60 -63 0
22 23 31 24 -39 26 47 -27 -35 42 -57 30 45 -51 -60 -63 0
22 23 31 -24 39 41 47 27 -35 -42 -57 30 45 -51 -60 -63 0
22 23 31 32 -26 -34 41 -47 35 -42 48 38 45 -51 -60 -63 0
22 23 31 -24 -32 39 34 -47 35 -42 57 38 45 -51 -60 -63 0
22 23 31 -24 32 -39 41 -47 -35 42 57 38 45 -51 -60 -63 0
22 23 31 -24 -32 39 34 -41 35 -48 57 38 45 -51 -60 -63 0
22 23 31 32 -39 -26 -34 41 35 48 -57 38 45 -51 -60 -63 0
22 23 31 -24 -39 -34 41 47 27 -48 30 -38 -45 -51 -60 -63 0
22 23 31 -24 -39 41 -47 27 -35 48 -30 -38 45 -51 -60 -63 0
22 24 39 -26 34 -41 -47 27 -35 48 -30 -38 -45 51 -60 -63 0
22 23 31 -24 -32 26 -47 35 -42 48 30 -38 -45 -51 -60 -63 0
22 23 31 -24 -39 26 -47 -35 42 48 30 -38 -45 -51 -60 -63 0
22 23 31 32 -39 -26 -34 47 27 -57 30 -38 -45 -51 -60 -63 0
22 23 31 -32 39 -26 -41 47 27 -57 30 -38 -45 -51 -60 -63 0
22 24 -32 -39 34 41 -47 -27 35 57 -30 -38 -45 -51 60 -63 0
22 23 31 24 -32 -26 -41 47 42 -57 -30 -38 45 -51 -60 -63 0
23 24 -39 26 34 47 -27 -35 42 -57 -30 -38 -45 -51 60 -63 0
31 32 -39 26 34 47 -27 -35 42 -57 -30 -38 -45 -51 60 -63 0
22 24 -32 26 41 47 -27 35 -42 -57 -30 -38 -45 -51 60 -63 0
22 23 31 24 -39 34 -27 -35 48 -57 -30 38 -45 -51 -60 -63 0
22 23 31 24 34 -41 -27 -35 -48 57 30 -38 -45 -51 -60 -63 0
23 24 -39 -26 -34 41 27 35 48 -57 -30 -38 -45 -51 -60 63 0
31 32 -39 -26 -34 41 27 35 48 -57 -30 -38 -45 -51 -60 63 0
22 23 31 -32 39 26 -27 -42 48 -57 30 -38 -45 -51 -60 -63 0
22 23 31 39 26 -34 -27 -42 -48 57 -30 -38 45 -51 -60 -63 0
31 -24 32 -39 -34 41 27 42 -48 57 -30 -38 -45 -51 -60 63 0
22 23 31 -24 32 41 -35 -42 48 -57 -30 -38 45 -51 -60 -63 0
23 24 -32 -39 -26 41 35 42 -48 57 -30 -38 -45 -51 -60 63 0
22 23 31 32 -39 26 41 -47 27 35 -57 -30 -38 -45 -51 60 -63 0
22 23 31 -32 39 26 34 -47 27 42 -57 -30 -38 -45 -51 60 -63 0
22 23 31 24 -32 34 41 -47 27 42 -57 -30 -38 -45 -51 60 -63 0
22 23 31 32 -39 26 34 47 27 -48 -57 -30 -38 -45 51 -60 -63 0
22 23 31 -32 39 26 41 47 27 -48 -57 -30 -38 -45 51 -60 -63 0
22 23 31 24 32 34 -47 27 -42 48 -57 -30 -38 -45 -51 -60 63 0
22 23 31 24 -32 41 -47 27 42 48 -57 -30 -38 -45 51 -60 -63 0
22 23 31 24 39 26 -47 -35 42 48 -57 -30 -38 -45 -51 -60 63 0
22 23 31 39 -26 34 -47 35 42 -48 57 -30 -38 -45 -51 60 -63 0
22 23 31 -24 32 41 -47 35 42 48 -57 -30 -38 -45 51 -60 -63 0
23 -24 -32 39 26 -41 28 36 -49 58 -29 -37 -44 -50 -59 64 0
31 -24 -32 39 34 -41 28 36 -49 58 -30 -38 -45 -51 -60 65 0
22 23 31 32 39 -26 34 -28 -36 -43 -49 -58 30 45 -51 -60 65 0
22 23 31 32 26 34 -47 -28 -36 -43 -49 -58 30 -45 -51 60 65 0
22 31 32 39 -26 34 47 -28 -36 -43 -49 -58 -30 -45 51 60 65 0
22 23 24 39 26 -34 47 -28 -36 -43 -49 -58 -38 -45 51 60 65 0
22 23 31 -24 39 34 41 28 36 -49 -58 -30 -38 -45 -51 -60 65 0
23 31 -24 39 34 41 47 -28 -36 49 58 -30 -38 -45 -51 -60 65 0
22 31 -24 32 34 41 47 -28 -43 49 58 -30 -38 -45 -51 -60 65 0
22 23 31 24 32 26 -47 36 -43 49 -58 -30 -38 -45 -51 -60 65 0
23 24 -39 -27 -35 42 -28 -36 -43 -49 -61 29 37 50 -62 64 0
23 31 32 39 -27 42 48 -28 -36 49 61 -29 -37 -44 -50 -62 64 0
31 -24 -32 39 35 -42 -28 -36 -43 -49 -61 30 38 -51 63 65 0
22 -24 32 27 -35 -42 -28 -36 -43 -49 -61 38 45 51 -63 65 0
22 23 31 32 35 42 -48 -28 -36 -43 -49 -61 -30 45 -51 63 65 0
22 23 31 24 39 -35 42 28 36 -49 -61 -30 -38 -45 -51 -63 65 0
22 23 24 -32 27 42 48 -36 -43 49 61 -30 -38 -45 -51 -63 65 0
22 23 31 33 40 26 -52 27 42 -53 57 28 36 54 58 0
22 23 31 25 40 34 -52 35 42 -53 57 28 36 54 58 0
22 23 31 33 40 26 -52 27 35 -53 57 28 43 54 58 0
22 23 31 40 26 -34 52 35 42 53 -57 28 43 54 58 0
22 23 31 40 26 34 -52 35 42 53 -57 28 43 54 58 0
22 23 31 -25 40 34 52 27 35 -53 57 36 43 54 58 0
22 23 31 25 40 34 -52 27 35 -53 57 36 43 54 58 0
22 23 31 40 26 34 -52 27 42 53 -57 36 43 54 58 0
22 23 31 33 -40 26 41 -52 27 53 57 28 36 54 61 0
22 23 31 33 40 26 41 -52 27 -53 57 28 36 54 61 0
22 23 31 25 26 41 52 35 -42 53 -57 28 36 54 61 0
22 23 31 33 40 26 34 -52 27 -53 57 28 43 54 61 0
22 23 31 25 33 26 41 -52 42 -53 57 36 43 54 61 0
22 23 31 33 26 34 52 27 42 -53 -57 36 43 54 61 0
22 23 31 33 40 41 52 27 -35 -53 57 28 43 58 61 0
22 23 31 33 40 26 34 -52 42 53 -57 28 43 58 61 0
22 23 31 25 40 26 34 -52 42 53 -57 36 43 58 61 0
22 23 31 25 33 34 52 -27 42 -53 57 36 43 58 61 0
22 23 31 33 -40 26 34 52 27 42 -53 28 54 58 61 0
22 23 31 25 40 26 34 -35 42 53 -57 28 54 58 61 0
22 23 31 25 33 26 -41 52 35 42 -57 36 54 58 61 0
22 23 31 -25 33 34 41 52 27 42 -53 43 54 58 61 0
22 23 31 33 40 26 -34 -52 27 42 57 43 54 58 61 0
22 23 31 33 40 -26 34 52 27 42 -57 43 54 58 61 0
22 23 31 25 40 34 41 -27 35 -53 57 43 54 58 61 0
22 23 31 -33 -40 -26 41 52 42 -53 57 -28 -36 43 -54 58 0
22 23 31 -25 -40 26 -52 27 -35 53 57 28 -36 -43 -54 61 0
22 23 31 -33 -40 41 -52 -27 42 53 57 -28 -36 43 -54 61 0
22 23 31 -25 33 34 52 -35 -42 53 -57 -28 36 -43 54 -61 0
22 23 31 -25 40 41 52 -35 -42 53 -57 -28 -36 43 54 -61 0
22 23 31 25 26 -34 52 -27 -42 -53 57 28 -36 -43 58 -61 0
22 23 31 33 26 -34 -41 -52 -27 35 53 28 36 -54 -58 -61 0
22 23 31 -25 33 -40 26 -52 27 -35 57 28 36 -54 -58 -61 0
22 23 31 -25 -33 40 26 -52 27 -42 57 28 43 -54 -58 -61 0
22 23 31 -25 -33 40 26 -41 27 -53 57 28 43 -54 -58 -61 0
22 23 31 40 -26 34 -41 -52 -35 42 53 36 43 -54 -58 -61 0
22 23 31 -25 -33 40 34 -52 35 -42 57 36 43 -54 -58 -61 0
22 23 31 -25 -33 40 34 -41 35 -53 57 36 43 -54 -58 -61 0
22 23 31 -25 33 -40 -34 41 42 -53 57 36 43 -54 -58 -61 0
22 23 31 -33 -40 -26 41 52 35 -53 -28 36 -43 -54 -58 -61 0
22 33 40 26 -34 -41 -52 -27 35 53 -28 -36 -43 54 -58 -61 0
22 23 31 -33 -40 -26 34 52 42 -53 -28 -36 43 -54 -58 -61 0
22 23 31 -25 -33 34 -52 27 -42 53 -28 36 -43 -54 -58 -61 0
23 33 40 -26 41 52 27 -35 -42 -53 -28 -36 -43 54 -58 -61 0
31 25 33 34 -41 52 -27 -35 42 -53 -28 -36 -43 54 -58 -61 0
31 25 40 -34 41 52 -27 35 -42 -53 -28 -36 -43 54 -58 -61 0
22 23 31 25 -33 -26 -41 52 42 -57 -28 -36 43 -54 -58 -61 0
23 25 -33 -40 34 41 -52 -27 42 57 -28 -36 -43 -54 58 -61 0
31 -25 33 -40 26 41 -52 -35 42 57 -28 -36 -43 -54 58 -61 0
23 25 -40 26 34 52 -27 -35 42 -57 -28 -36 -43 -54 58 -61 0
31 33 -40 26 34 52 -27 -35 42 -57 -28 -36 -43 -54 58 -61 0
22 23 31 -33 40 26 -27 -42 53 -57 28 -36 -43 -54 -58 -61 0
22 23 31 25 -34 41 -27 -42 -53 57 28 -36 -43 -54 -58 -61 0
23 25 -33 -40 -26 41 35 42 -53 57 -28 -36 -43 -54 -58 61 0
22 23 31 25 40 34 41 -52 -27 35 -53 -28 -36 -43 54 -58 -61 0
22 23 31 33 40 26 34 -52 27 -42 -53 -28 -36 -43 54 -58 -61 0
22 23 31 -33 40 26 34 -52 27 42 -57 -28 -36 -43 -54 58 -61 0
22 23 31 25 -33 34 41 -52 27 42 -57 -28 -36 -43 -54 58 -61 0
22 23 31 25 40 26 34 -52 -35 42 -57 -28 -36 -43 -54 58 -61 0
22 23 31 -25 33 26 41 -52 35 42 -57 -28 -36 -43 -54 58 -61 0
22 23 31 -25 40 34 41 52 35 -53 -57 -28 -36 -43 54 -58 -61 0
22 23 31 33 26 -41 -52 27 35 -53 57 -28 -36 -43 -54 58 -61 0
22 23 31 40 34 41 -52 -27 35 -53 57 -28 -36 -43 -54 -58 61 0
22 23 31 33 26 34 -52 27 -42 -53 57 -28 -36 -43 -54 -58 61 0
22 23 31 25 -33 41 -52 27 42 53 -57 -28 -36 -43 54 -58 -61 0
22 23 31 25 -34 41 -52 27 42 -53 57 -28 -36 -43 -54 58 -61 0
22 23 31 25 -40 26 34 35 42 -53 -57 -28 -36 -43 -54 -58 61 0
22 23 31 25 33 26 -41 35 42 -53 -57 -28 -36 -43 -54 -58 61 0
22 23 31 -25 40 34 -52 35 42 53 -57 -28 -36 -43 54 -58 -61 0
22 23 31 25 26 34 -52 35 -42 -53 57 -28 -36 -43 -54 -58 61 0
22 23 31 25 33 41 -52 35 42 -53 57 29 44 55 59 0
22 23 31 -25 40 34 52 27 35 -53 57 37 44 55 59 0
22 23 31 25 26 41 52 35 42 -53 -57 29 37 55 62 0
22 23 31 25 40 26 34 -52 35 -53 57 37 44 55 62 0
22 23 31 25 33 26 52 -35 42 -53 57 29 44 59 62 0
22 23 31 25 -33 -40 41 -52 -27 42 57 29 44 -55 -59 -62 0
22 25 40 26 -34 52 -27 35 -42 -53 -29 -37 -44 55 -59 -62 0
23 25 33 26 -41 52 -27 -35 42 -53 -29 -37 -44 55 -59 -62 0
23 25 -33 -40 34 41 -52 -27 42 57 -29 -37 -44 -55 59 -62 0
22 23 31 33 26 -41 -27 -35 -53 57 -29 37 -44 -55 -59 -62 0
22 23 31 33 40 26 -52 27 42 -53 57 30 38 56 60 0
22 23 31 25 34 -41 52 27 42 53 -57 30 38 56 60 0
22 23 31 25 40 34 -52 35 42 -53 57 30 38 56 60 0
22 23 31 33 26 -41 52 35 42 53 -57 30 38 56 60 0
22 23 31 40 26 34 -52 35 42 53 -57 30 45 56 60 0
22 23 31 25 40 34 -52 27 35 -53 57 38 45 56 60 0
22 23 31 33 34 41 52 27 42 -53 -57 30 38 56 63 0
22 23 31 -33 40 26 34 -52 27 53 57 30 45 56 63 0
22 23 31 40 34 41 52 27 35 -53 -57 30 45 56 63 0
22 23 31 25 26 34 52 35 42 -53 -57 30 45 56 63 0
22 23 31 -25 40 26 34 -52 35 53 57 38 45 56 63 0
22 23 31 25 40 26 34 -52 35 -53 57 38 45 56 63 0
22 23 31 40 26 41 52 27 35 -53 -57 38 45 56 63 0
22 23 31 25 33 26 41 -52 42 -53 57 38 45 56 63 0
22 23 31 33 26 34 52 27 42 -53 -57 38 45 56 63 0
22 23 31 25 40 26 52 35 42 -53 -57 30 38 60 63 0
22 23 31 25 33 -34 41 -52 27 53 57 30 45 60 63 0
22 23 31 25 33 34 41 -52 27 53 -57 30 45 60 63 0
22 23 31 33 40 41 52 27 35 -53 -57 30 45 60 63 0
22 23 31 33 40 26 34 -52 42 53 -57 30 45 60 63 0
22 23 31 25 33 26 52 -35 42 -53 57 30 45 60 63 0
22 23 31 25 33 26 52 35 42 -53 -57 30 45 60 63 0
22 23 31 25 33 -26 41 -52 35 53 57 38 45 60 63 0
22 23 31 25 33 26 41 -52 35 53 -57 38 45 60 63 0
22 23 31 25 40 41 52 -27 35 -53 57 38 45 60 63 0
22 23 31 25 40 41 52 27 35 -53 -57 38 45 60 63 0
22 23 31 25 40 -26 34 -52 42 53 57 38 45 60 63 0
22 23 31 25 40 26 34 -52 42 53 -57 38 45 60 63 0
22 23 31 25 33 34 52 -27 42 -53 57 38 45 60 63 0
22 23 31 25 33 34 52 27 42 -53 -57 38 45 60 63 0
22 23 31 -33 40 26 34 -52 27 42 53 30 56 60 63 0
22 23 31 33 -40 26 34 52 27 42 -53 30 56 60 63 0
22 23 31 25 33 34 -41 52 27 42 -57 30 56 60 63 0
22 23 31 33 40 26 34 -27 42 53 -57 38 56 60 63 0
22 23 31 -25 33 34 41 52 27 42 -53 45 56 60 63 0
22 23 31 33 40 -26 34 52 27 42 -57 45 56 60 63 0
22 23 31 33 40 26 41 27 -35 -53 57 45 56 60 63 0
22 23 31 25 40 34 41 -27 35 -53 57 45 56 60 63 0
22 23 31 -25 -33 34 -41 52 35 -53 57 -30 38 -45 -56 60 0
22 23 31 -33 40 -26 -41 52 42 53 -57 -30 -38 45 56 -60 0
22 23 31 -25 40 -34 -41 52 42 53 -57 -30 -38 45 56 -60 0
22 23 31 33 -40 34 52 -27 -35 53 -57 -30 38 -45 56 -63 0
22 23 31 33 -34 -41 -52 -27 35 53 57 -30 38 -45 -60 63 0
22 23 31 33 -26 -34 -52 35 -42 53 57 -30 38 -45 -60 63 0
22 23 31 25 -26 34 -41 -52 27 -35 53 30 38 -56 -60 -63 0
22 23 31 33 26 -34 -41 -52 -27 35 53 30 38 -56 -60 -63 0
22 23 31 25 26 -34 52 -27 35 -42 -53 30 38 -56 -60 -63 0
22 23 31 33 -26 34 52 27 -35 -42 -53 30 38 -56 -60 -63 0
22 23 31 -25 33 -40 26 -52 27 -35 57 30 38 -56 -60 -63 0
22 23 31 -25 33 -40 26 -34 27 -53 57 30 38 -56 -60 -63 0
22 23 31 -25 33 26 -34 -41 35 53 -57 30 38 -56 -60 -63 0
22 23 31 40 26 -34 -41 -52 -27 42 53 30 45 -56 -60 -63 0
22 23 31 40 -26 41 52 27 -35 -42 -53 30 45 -56 -60 -63 0
22 23 31 -25 -33 40 26 -52 27 -42 57 30 45 -56 -60 -63 0
22 23 31 -25 40 41 52 27 -35 -42 -57 30 45 -56 -60 -63 0
22 23 31 33 -26 -34 41 -52 35 -42 53 38 45 -56 -60 -63 0
22 23 31 40 -26 34 -41 -52 -35 42 53 38 45 -56 -60 -63 0
22 23 31 33 34 -41 52 -27 -35 42 -53 38 45 -56 -60 -63 0
22 23 31 40 -34 41 52 -27 35 -42 -53 38 45 -56 -60 -63 0
22 23 31 33 -40 34 52 -27 -35 42 -57 38 45 -56 -60 -63 0
22 23 31 33 -40 -26 -34 41 35 53 -57 38 45 -56 -60 -63 0
22 23 31 -25 33 -40 -34 41 42 -53 57 38 45 -56 -60 -63 0
22 23 31 -25 -40 -34 41 52 27 -53 30 -38 -45 -56 -60 -63 0
22 33 40 26 -34 -41 -52 -27 35 53 -30 -38 -45 56 -60 -63 0
22 23 31 -25 -33 34 -52 27 -42 53 -30 38 -45 -56 -60 -63 0
22 23 31 -25 -40 26 -52 -35 42 53 30 -38 -45 -56 -60 -63 0
31 25 40 -26 34 -41 -52 -35 42 53 -30 -38 -45 56 -60 -63 0
23 33 40 -26 41 52 27 -35 -42 -53 -30 -38 -45 56 -60 -63 0
31 25 40 -34 41 52 -27 35 -42 -53 -30 -38 -45 56 -60 -63 0
22 23 31 33 -40 -26 -34 52 27 -57 30 -38 -45 -56 -60 -63 0
22 23 31 25 -40 -26 -34 52 35 -57 -30 38 -45 -56 -60 -63 0
22 23 31 40 -34 -41 -52 -27 35 57 -30 -38 45 -56 -60 -63 0
22 23 31 33 -26 -34 -52 27 -42 57 -30 38 -45 -56 -60 -63 0
23 -25 -33 40 26 34 -52 27 -42 57 -30 -38 -45 -56 60 -63 0
22 23 31 25 -26 -34 -52 35 -42 57 30 -38 -45 -56 -60 -63 0
31 -25 33 -40 26 41 -52 -35 42 57 -30 -38 -45 -56 60 -63 0
23 25 -40 26 34 52 -27 -35 42 -57 -30 -38 -45 -56 60 -63 0
22 -25 33 34 41 52 27 -35 -42 -57 -30 -38 -45 -56 60 -63 0
22 23 31 33 -40 26 -27 -35 53 -57 30 -38 -45 -56 -60 -63 0
22 23 31 25 -40 34 -27 -35 53 -57 -30 38 -45 -56 -60 -63 0
22 23 31 25 34 -41 -27 -35 -53 57 30 -38 -45 -56 -60 -63 0
23 25 -40 -26 -34 41 27 35 53 -57 -30 -38 -45 -56 -60 63 0
31 33 -40 -26 -34 41 27 35 53 -57 -30 -38 -45 -56 -60 63 0
22 -25 33 -40 26 -34 27 42 -53 57 -30 -38 -45 -56 -60 63 0
22 23 31 25 -33 41 -27 -42 53 -57 -30 -38 45 -56 -60 -63 0
31 -25 33 -40 -34 41 27 42 -53 57 -30 -38 -45 -56 -60 63 0
31 -33 40 -26 34 -41 27 42 53 -57 -30 -38 -45 -56 -60 63 0
22 25 -33 -40 -26 34 35 42 -53 57 -30 -38 -45 -56 -60 63 0
22 23 31 33 -26 41 -35 -42 -53 57 -30 38 -45 -56 -60 -63 0
22 -25 33 26 -34 -41 35 42 53 -57 -30 -38 -45 -56 -60 63 0
22 23 31 25 33 26 41 -52 -35 42 -53 -30 -38 -45 56 -60 -63 0
22 23 31 25 40 -34 41 52 27 -53 -57 -30 -38 -45 -56 60 -63 0
22 23 31 33 40 -26 41 52 35 -53 -57 -30 -38 -45 -56 60 -63 0
22 23 31 33 40 -26 34 27 42 -53 -57 -30 -38 -45 -56 -60 63 0
22 23 31 -25 33 34 41 27 42 -53 -57 -30 -38 -45 -56 -60 63 0
22 23 31 25 33 34 -41 27 42 -53 -57 -30 -38 -45 -56 -60 63 0
22 23 31 33 26 34 -52 27 -42 -53 57 -30 -38 -45 -56 -60 63 0
22 23 31 25 33 26 -52 35 -42 53 -57 -30 -38 -45 -56 -60 63 0
22 23 25 33 26 -41 52 -36 -43 54 58 -29 -37 -44 -55 -59 64 0
22 23 31 -25 40 34 41 28 36 -54 -58 -30 -38 -45 -56 -60 65 0
22 23 31 40 26 41 -52 28 -36 -54 58 -30 -38 -45 -56 -60 65 0
23 31 -25 40 34 41 52 -28 -36 54 58 -30 -38 -45 -56 -60 65 0
22 23 31 -25 33 34 41 28 43 -54 -58 -30 -38 -45 -56 -60 65 0
22 31 -25 33 34 41 52 -28 -43 54 58 -30 -38 -45 -56 -60 65 0
22 23 25 -33 26 41 52 -36 -43 54 58 -30 -38 -45 -56 -60 65 0
22 25 -33 -40 -27 35 36 43 -54 61 -30 -38 -45 -56 -63 65 0
22 23 31 25 -33 -40 35 42 -53 -28 -36 -54 61 -30 45 -56 63 0
22 23 31 25 27 35 -53 -28 -36 -43 -54 -61 38 -45 -56 63 65 0
22 23 31 40 27 42 -53 28 -36 -54 61 -30 -38 -45 -56 -63 65 0
22 23 31 25 -40 27 35 36 43 -54 -61 -30 -38 -45 -56 -63 65 0
22 23 25 -40 27 35 53 -36 -43 54 61 -30 -38 -45 -56 -63 65 0
23 -26 -34 27 -42 57 -28 -36 -43 -58 -61 29 37 44 -59 64 0
23 26 -41 -27 -35 42 28 36 58 -61 -29 -37 -44 -59 -62 64 0
22 23 31 -34 41 27 42 -28 -36 -43 -58 -61 29 37 -59 -62 64 0
31 34 -41 -27 -35 42 -28 -36 -43 -58 -61 30 38 60 -63 65 0
22 -26 34 -41 27 -35 -28 -36 -43 -58 -61 30 45 -60 63 65 0
23 -26 41 27 -35 -42 36 43 58 -61 -30 -38 -45 -60 -63 65 0
22 31 34 41 -27 35 57 -28 -36 -43 -58 -61 -30 -45 60 63 65 0
22 31 -26 34 35 42 57 -28 -36 -43 -58 -61 -30 -45 60 63 65 0
22 23 31 26 -34 27 42 -28 -36 -43 -58 -61 38 45 -60 -63 65 0
22 23 31 26 34 27 -57 -28 -36 -43 -58 -61 38 -45 60 -63 65 0
22 23 31 26 34 35 -57 28 -43 58 -61 -30 -38 -45 -60 -63 65 0
22 23 31 34 27 35 -57 28 -43 -58 61 -30 -38 -45 -60 -63 65 0
22 23 31 26 41 27 -35 36 43 -58 -61 -30 -38 -45 -60 -63 65 0
22 23 31 26 -34 27 42 36 43 -58 -61 -30 -38 -45 -60 -63 65 0
22 23 31 26 27 42 -57 -36 43 -58 61 -30 -38 -45 -60 -63 65 0
22 -24 -33 46 34 -52 27 35 48 -53 -28 36 -49 -54 -58 -61 0
-24 32 25 -33 46 -34 -28 -36 -49 -54 -58 29 -37 55 59 64 0
-32 -25 -46 -26 -34 -28 36 -49 -54 58 -30 -38 -51 -56 -60 0
-24 -33 -46 -26 -34 -28 36 -49 -54 58 -30 -38 -51 -56 -60 0
-24 -33 -46 -26 -34 28 -36 -49 -54 58 -30 -38 -51 -56 -60 0
-32 -25 -33 -26 -47 -28 -36 -49 -54 -58 -30 38 -51 56 -60 0
-24 -25 -33 -34 -47 -28 -36 -49 -54 -58 -30 -38 51 -56 60 0
-24 -32 -25 -34 -52 -28 -36 -49 -54 -58 30 -38 -51 56 -60 0
-24 -32 -25 -34 -52 -28 -36 -49 -54 -58 30 -38 51 -56 -60 0
-24 -32 -25 -34 -52 -28 36 49 -54 -58 -30 -38 -51 -56 -60 0
-24 -32 -25 -34 -52 28 -36 49 -54 -58 -30 -38 -51 -56 -60 0
22 -25 33 -46 26 -34 -28 -36 -49 -54 -58 30 51 -56 60 65 0
22 -25 33 -46 26 -34 28 49 -54 58 -30 -38 -51 -56 -60 65 0
22 -24 32 -33 46 -53 -28 -36 -49 -54 -61 29 37 -55 62 64 0
-32 -25 -46 -27 -35 -28 36 49 -54 -61 -30 -38 -51 -56 -63 0
-24 -33 -46 -27 -35 -28 -36 -49 -54 -61 30 -38 -51 -56 63 0
-24 -32 -33 -27 -53 -28 -36 -49 -54 -61 30 -38 51 -56 -63 0
22 24 -32 -25 33 -48 -28 -36 -49 -54 -61 38 -51 56 63 65 0
-32 -25 33 35 48 -53 28 49 -54 61 -30 -38 -51 -56 -63 65 0
-24 -34 -47 -27 -35 28 -36 49 -58 -61 -29 -37 -50 -59 -62 0
-24 -32 -34 -27 -57 -28 36 49 -58 -61 -29 -37 -50 -59 -62 0
-24 -32 -34 -27 -57 28 -36 49 -58 -61 -29 -37 -50 -59 -62 0
22 -24 26 34 -47 35 48 57 -28 36 61 29 -37 -50 -59 -62 -64 0
-32 -26 -47 -27 -35 -28 -36 -49 -58 -61 30 -38 -51 -60 63 0
-32 -26 -34 -27 -48 -28 -36 -49 -58 -61 30 -38 -51 -60 63 0
-24 -26 -34 -35 -48 -28 -36 -49 -58 -61 -30 38 -51 -60 63 0
-24 -32 -34 -27 -57 -28 36 49 -58 -61 -30 -38 -51 -60 -63 0
-24 -32 -26 -35 -57 28 -36 49 -58 -61 -30 -38 -51 -60 -63 0
22 -24 32 -47 27 -35 -28 -36 -49 -58 -61 30 -51 60 63 65 0
24 -32 -34 -27 35 48 28 -36 49 58 -30 -38 -51 -60 -63 65 0
-24 -34 -47 -27 -35 -29 -37 -50 -59 -62 -30 38 -51 -60 63 0
-33 -26 -52 -27 -35 -28 -36 -54 -58 -61 29 -37 -55 -59 62 0
-25 -34 -52 -27 -35 -28 -36 -54 -58 -61 29 -37 -55 -59 62 0
22 -33 26 -34 -27 57 -36 54 58 61 -29 -37 -55 -59 -62 64 0
-33 -26 -52 -27 -35 -28 -36 -54 -58 -61 30 -38 -56 -60 63 0
-25 -34 -52 -27 -35 -28 36 -54 -58 61 -30 -38 -56 -60 -63 0
-25 -34 -52 -27 -35 28 -36 -54 -58 61 -30 -38 -56 -60 -63 0
-33 -26 -34 -27 -53 -28 -36 -54 -58 -61 30 -38 -56 -60 63 0
-33 -26 -34 -27 -53 -28 -36 -54 -58 -61 -30 38 -56 60 -63 0
-33 -26 -34 -27 -53 -28 -36 -54 -58 -61 30 -38 -56 60 -63 0
-33 -26 -34 -27 -53 -28 -36 -54 -58 -61 -30 38 56 -60 -63 0
-25 -26 -34 -35 -53 -28 36 -54 58 -61 -30 -38 -56 -60 -63 0
-25 -26 -34 -35 -53 28 -36 -54 58 -61 -30 -38 -56 -60 -63 0
-25 -33 -34 -27 -57 -28 36 54 -58 -61 -30 -38 -56 -60 -63 0
-25 -33 -34 -27 -57 28 -36 54 -58 -61 -30 -38 -56 -60 -63 0
-25 -33 -26 -35 -57 -28 36 54 -58 -61 -30 -38 -56 -60 -63 0
-25 -33 -26 -35 -57 28 -36 54 -58 -61 -30 -38 -56 -60 -63 0
-33 34 52 -27 35 -57 -28 -36 -54 -58 -61 30 56 60 -63 65 0
25 -33 -34 -27 35 53 28 -36 54 58 -30 -38 -56 -60 -63 65 0
22 -33 -27 -53 -28 36 -61 -37 -55 -62 -64 -30 -38 -56 -63 0
23 39 25 -26 -41 -47 52 27 42 -53 -28 43 -49 -54 -58 -61 0
23 24 -46 26 -41 47 -52 27 42 48 53 -28 -43 -49 -54 58 -61 0
23 24 -39 -26 41 -52 -28 -43 -49 -54 -58 29 50 55 -59 64 0
-39 -25 -46 -26 -41 -28 43 -49 -54 58 -30 -45 -51 -56 -60 0
-24 -40 -46 -26 -41 -28 43 -49 54 -58 -30 -45 -51 -56 -60 0
-24 -25 -40 -41 -47 -28 -43 -49 -54 -58 -30 45 -51 -56 60 0
-24 -39 -40 -26 -52 -28 -43 -49 -54 -58 -30 45 51 -56 -60 0
23 24 -39 -25 46 -41 -43 49 54 58 -30 -45 -51 -56 -60 65 0
23 25 -40 -27 42 -48 -28 -43 -49 -54 -61 29 50 55 -62 64 0
-39 -25 -46 -27 -42 -28 43 -49 -54 61 -30 -45 -51 -56 -63 0
-24 -40 -46 -27 -42 -28 43 -49 -54 61 -30 -45 -51 -56 -63 0
-24 -40 -46 -27 -42 28 -43 -49 -54 61 -30 -45 -51 -56 -63 0
-39 -25 -40 -27 -48 -28 -43 -49 -54 -61 -30 45 -51 56 -63 0
-39 -25 -40 -27 -48 -28 -43 -49 -54 -61 30 -45 -51 56 -63 0
-24 -25 -40 -42 -48 -28 -43 -49 -54 -61 30 -45 -51 56 -63 0
-24 -25 -40 -42 -48 -28 43 -49 54 -61 -30 -45 -51 -56 -63 0
-24 -39 -40 -27 -53 -28 -43 -49 -54 -61 -30 45 51 -56 -63 0
-24 -39 -40 -27 -53 -28 -43 -49 -54 -61 30 -45 51 -56 -63 0
-24 -39 -25 -42 -53 -28 -43 -49 54 61 -30 -45 -51 -56 -63 0
-24 39 -25 27 -42 48 -28 -43 -49 -54 -61 -30 45 51 56 65 0
23 -24 25 -40 46 -42 -43 49 54 61 -30 -45 -51 -56 -63 65 0
-24 -39 -41 -27 -57 -28 -43 -49 58 61 -29 -44 -50 -59 -62 0
-39 -26 -47 -27 -42 -28 -43 -49 -58 -61 -30 45 -51 -60 63 0
-39 -26 -47 -27 -42 -28 -43 -49 -58 -61 -30 -45 51 60 -63 0
-39 -26 -47 -27 -42 -28 -43 -49 -58 -61 30 -45 -51 60 -63 0
-39 -26 -41 -27 -48 -28 -43 -49 -58 -61 -30 45 -51 60 -63 0
23 24 -39 -27 48 -57 28 43 58 -61 -30 -45 -51 -60 -63 65 0
23 -40 -52 -27 42 53 -28 -43 -54 -58 -61 29 44 -55 59 64 0
23 25 -40 -52 -27 42 -28 -43 -54 -58 -61 44 -55 59 62 64 0
-40 -26 -52 -27 -42 -28 43 -54 -58 61 -30 -45 -56 -60 -63 0
-25 -41 -52 -27 -42 -28 -43 -54 -58 -61 -30 45 -56 -60 63 0
-25 -41 -52 -27 -42 -28 -43 -54 -58 -61 -30 45 -56 60 -63 0
-25 -41 -52 -27 -42 -28 -43 -54 -58 -61 30 -45 56 -60 -63 0
-40 -26 -41 -27 -53 -28 -43 -54 -58 -61 30 -45 -56 60 -63 0
-25 -26 -41 -42 -53 -28 -43 -54 -58 -61 -30 -45 56 -60 63 0
-25 -26 -41 -42 -53 -28 -43 -54 -58 -61 -30 45 -56 60 -63 0
-25 -26 -41 -42 -53 -28 -43 -54 -58 -61 30 -45 -56 60 -63 0
-25 -40 -41 -27 -57 -28 -43 -54 -58 -61 30 -45 56 -60 -63 0
-25 -40 -26 -42 -57 -28 43 54 -58 -61 -30 -45 -56 -60 -63 0
-25 40 41 -52 -42 57 28 -54 58 61 -30 -45 -56 -60 -63 65 0
-25 -47 -52 -27 -48 -28 -49 -54 -58 -61 -30 -51 56 60 -63 0
-46 -26 -47 -27 -53 -28 -49 -54 -58 -61 -30 51 56 -60 -63 0
-25 -26 -47 -48 -53 -28 -49 -54 -58 -61 -30 51 -56 60 -63 0
-24 -26 -52 -48 -53 -28 -49 -54 -58 -61 30 -51 -56 60 -63 0
-25 -46 -26 -48 -57 -28 -49 -54 58 61 -30 -51 -56 -60 -63 0
-25 -46 -26 -48 -57 28 -49 -54 58 -61 -30 -51 -56 -60 -63 0
-24 -25 -47 -53 -57 -28 49 -54 58 -61 -30 -51 -56 -60 -63 0
24 -46 -27 -53 -28 -49 -54 -61 29 -50 -55 -30 -56 -63 -66 0
31 39 40 46 34 -47 -52 35 42 53 57 36 43 49 58 0
31 32 -39 33 40 41 -47 52 35 53 -57 -38 -45 -51 -56 60 -63 0
-39 -33 -46 -34 -41 36 -43 -49 -54 58 -37 -44 -50 -55 -59 0
-39 -33 -46 -34 -41 -36 -43 49 54 -58 -37 -44 -50 -55 -59 0
-32 -39 -40 -34 -52 -36 -43 -49 -54 -58 -37 44 50 -55 -59 0
-39 -33 -40 -34 -47 -36 -43 -49 -54 -58 38 -45 -51 56 -60 0
-39 -33 -40 -34 -47 -36 -43 -49 -54 -58 -38 45 51 -56 -60 0
-32 -33 -40 -41 -47 -36 -43 -49 -54 -58 -38 45 -51 -56 60 0
-32 -33 -40 -41 -47 -36 -43 -49 -54 -58 -38 45 -51 56 -60 0
-32 -39 -40 -34 -52 -36 -43 -49 -54 -58 -38 45 -51 56 -60 0
-32 -39 -40 -34 -52 -36 -43 -49 -54 -58 -38 45 51 -56 -60 0
-39 -33 -40 -35 -48 -36 -43 -49 -54 -61 37 -44 -50 55 -62 0
-39 -33 -40 -35 -48 -36 -43 -49 -54 -61 -37 44 50 -55 -62 0
-39 -33 -46 -35 -42 -36 43 -49 -54 61 -38 -45 -51 -56 -63 0
-32 -40 -46 -35 -42 -36 43 -49 -54 61 -38 -45 -51 -56 -63 0
-32 -33 -40 -42 -48 -36 -43 -49 -54 -61 38 -45 51 -56 -63 0
-32 -39 -40 -35 -53 -36 -43 -49 -54 -61 -38 45 51 -56 -63 0
-32 -39 -40 -35 -53 -36 -43 -49 -54 -61 38 -45 51 -56 -63 0
-39 -34 -47 -35 -42 -36 -43 -49 -58 -61 -38 -45 51 60 -63 0
-39 -34 -47 -35 -42 -36 -43 -49 -58 -61 -38 45 51 -60 -63 0
-32 -41 -47 -35 -42 -36 -43 -49 -58 -61 38 -45 -51 -60 63 0
-32 -41 -47 -35 -42 -36 -43 -49 -58 -61 38 -45 51 -60 -63 0
-32 -34 -41 -42 -48 -36 -43 -49 -58 -61 -38 45 -51 -60 63 0
-32 -34 -41 -42 -48 -36 -43 -49 -58 -61 -38 45 -51 60 -63 0
-32 -34 -41 -42 -48 -36 -43 -49 -58 -61 38 -45 -51 60 -63 0
-32 -34 -41 -42 -48 -36 -43 -49 -58 -61 38 -45 51 -60 -63 0
-32 -39 -41 -35 -57 36 -43 49 -58 -61 -38 -45 -51 -60 -63 0
31 -32 -41 -47 -36 -43 -49 -58 -37 44 -50 -45 -51 -60 -66 0
-40 -34 -41 -35 -53 -36 43 -54 58 -61 -37 -44 -55 -59 -62 0
-33 -34 -41 -42 -53 36 -43 -54 58 -61 -37 -44 -55 -59 -62 0
-40 -34 -52 -35 -42 -36 -43 -54 -58 -61 -38 45 56 -60 -63 0
-40 -34 -52 -35 -42 36 -43 -54 -58 61 -38 -45 -56 -60 -63 0
-33 -41 -52 -35 -42 -36 -43 -54 -58 -61 -38 45 -56 -60 63 0
-33 -41 -52 -35 -42 -36 -43 -54 -58 -61 38 -45 -56 -60 63 0
-33 -40 -41 -35 -57 -36 -43 -54 -58 -61 -38 45 56 -60 -63 0
31 -40 -52 -35 42 53 -37 -44 -55 -59 -62 38 45 -56 60 66 0
-46 -34 -52 -35 -48 -36 49 -54 -58 61 -38 -51 -56 -60 -63 0
-46 -34 -52 -35 -48 36 -49 -54 58 -61 -38 -51 -56 -60 -63 0
-46 -34 -47 -35 -53 -36 -49 54 -58 61 -38 -51 -56 -60 -63 0
-32 -47 -52 -35 -53 -36 -49 -54 -58 -61 -38 -51 56 60 -63 0
-32 -47 -52 -35 -53 -36 -49 -54 -58 -61 -38 51 -56 60 -63 0
-33 -34 -47 -48 -53 -36 -49 -54 -58 -61 -38 51 -56 -60 63 0
-32 -34 -52 -48 -53 -36 -49 -54 -58 -61 -38 -51 56 -60 63 0
-33 -46 -47 -35 -57 -36 -49 -54 -58 -61 38 -51 -56 -60 63 0
-33 -46 -47 -35 -57 -36 -49 -54 -58 -61 -38 51 -56 60 -63 0
-33 -46 -34 -48 -57 -36 49 54 -58 -61 -38 -51 -56 -60 -63 0
-33 -46 -34 -48 -57 36 -49 54 -58 -61 -38 -51 -56 -60 -63 0
-32 -33 -52 -48 -57 36 49 -54 -58 -61 -38 -51 -56 -60 -63 0
-32 -33 -47 -53 -57 -36 -49 -54 -58 -61 -38 51 -56 60 -63 0
-32 -33 -47 -53 -57 36 -49 54 -58 -61 -38 -51 -56 -60 -63 0
-32 -33 -47 -53 -57 36 49 -54 -58 -61 -38 -51 -56 -60 -63 0
-39 -40 -52 -48 -57 -43 -49 -54 -58 -61 44 -50 55 -59 -62 0
-46 -41 -52 -42 -48 -43 -49 -54 -58 -61 -45 51 -56 -60 63 0
-40 -47 -52 -42 -48 -43 -49 -54 -58 -61 -45 51 -56 -60 63 0
-39 -47 -52 -42 -53 -43 49 -54 58 -61 -45 -51 -56 -60 -63 0
-40 -41 -47 -48 -53 -43 -49 -54 -58 -61 45 -51 -56 60 -63 0
-39 -41 -52 -48 -53 -43 -49 -54 -58 -61 -45 51 -56 -60 63 0
-39 -41 -52 -48 -53 -43 49 -54 -58 61 -45 -51 -56 -60 -63 0
-39 -46 -52 -42 -57 43 -49 -54 -58 61 -45 -51 -56 -60 -63 0
-39 -40 -52 -48 -57 -43 -49 -54 -58 -61 45 -51 56 -60 -63 0
-39 -46 -41 -53 -57 -43 49 54 -58 -61 -45 -51 -56 -60 -63 0
-39 -40 -47 -53 -57 -43 -49 -54 -58 -61 -45 -51 -56 60 63 0
-39 -40 -47 -53 -57 -43 -49 -54 -58 -61 45 -51 56 -60 -63 0
-39 -40 -47 -53 -57 -43 49 -54 58 -61 -45 -51 -56 -60 -63 0
-39 -40 -48 53 -43 -49 -54 -61 -44 -50 -55 -51 56 -63 -66 0
-12 -13 23 15 24 -39 -20 29 37 44 0
-13 -14 23 15 -24 39 -20 29 37 44 0
-12 -13 31 15 32 -39 -20 29 37 44 0
-12 -14 31 15 -32 39 -20 29 37 44 0
-13 -14 23 15 -24 39 -21 30 38 45 0
-12 -13 31 15 32 -39 -21 30 38 45 0
-12 22 -14 16 25 -33 -20 29 37 44 0
-13 -14 23 16 -25 40 -20 29 37 44 0
-13 22 -14 16 -25 33 -21 30 38 45 0
-13 -14 23 16 -25 40 -21 30 38 45 0
-12 -13 23 17 26 -41 -19 28 36 43 0
-12 -13 23 17 26 -41 -20 29 37 44 0
-12 -13 31 17 34 -41 -20 29 37 44 0
-12 -13 23 17 26 -41 -21 30 38 45 0
-12 -13 31 17 34 -41 -21 30 38 45 0
-12 -13 23 18 27 -42 -19 28 36 43 0
-12 -14 31 18 -35 42 -19 28 36 43 0
-13 22 -14 18 -27 35 -20 29 37 44 0
-12 -13 23 18 27 -42 -20 29 37 44 0
-12 -13 23 18 27 -42 -21 30 38 45 0
-13 -14 23 18 -27 42 -21 30 38 45 0
-12 -13 24 16 25 -46 -19 28 36 49 0
-12 -13 32 16 33 -46 -19 28 36 49 0
-13 22 15 -24 32 -25 19 -28 49 54 0
-12 22 -32 -25 33 46 19 -28 49 54 0
-13 15 32 -25 33 -46 19 28 49 -54 0
-12 -13 -32 -25 -46 -19 -28 -36 49 54 0
-12 -13 -32 -25 -46 -19 28 -36 -49 54 0
-12 -13 -32 -25 -46 -19 -28 36 49 -54 0
-12 -13 -32 -25 -46 19 -28 36 -49 -54 0
-12 -13 -32 -25 -46 19 28 -36 -49 -54 0
-12 -13 -24 -33 -46 -19 -28 -36 49 54 0
-12 -13 -24 -33 -46 -19 -28 36 -49 54 0
-12 -13 -24 -33 -46 -19 28 -36 49 -54 0
-12 -13 -24 -33 -46 19 -28 36 -49 -54 0
-12 -13 -24 -33 -46 19 28 -36 -49 -54 0
-13 22 24 16 25 33 46 -19 28 36 -49 0
-13 22 15 24 32 25 46 -19 28 36 -54 0
-12 22 15 24 32 33 46 -19 28 36 -54 0
-12 15 24 32 16 33 46 19 -28 -36 54 0
-13 -24 32 25 -33 46 20 29 -37 55 0
-12 -13 -24 -33 -46 -20 -29 -37 50 55 0
-12 -13 -24 -33 -46 -20 29 -37 50 -55 0
-12 -13 -24 -33 -46 20 29 -37 -50 -55 0
-12 22 32 16 25 33 46 -20 29 37 -50 0
-13 15 24 32 16 25 46 20 -29 -37 55 0
-12 -13 24 16 25 -46 -21 30 38 51 0
-12 -24 32 25 -33 46 21 -30 38 51 0
-12 -13 15 24 25 -46 -21 30 38 56 0
-12 -13 15 32 33 -46 -21 30 38 56 0
-13 -24 32 25 -33 46 21 30 -38 56 0
-13 22 15 -24 32 -25 21 -30 51 56 0
-13 -24 32 16 33 -46 21 30 -51 56 0
-13 15 32 -25 33 -46 21 30 51 -56 0
-12 24 -32 16 25 -46 21 38 -51 56 0
-12 -13 -32 -25 -46 -21 -30 -38 51 56 0
-12 -13 -32 -25 -46 -21 30 -38 -51 56 0
-12 -13 -32 -25 -46 -21 -30 38 51 -56 0
-12 -13 -32 -25 -46 21 -30 38 -51 -56 0
-12 -13 -32 -25 -46 21 30 -38 -51 -56 0
-12 -13 -24 -33 -46 -21 -30 -38 51 56 0
-12 -13 -24 -33 -46 -21 -30 38 -51 56 0
-12 -13 -24 -33 -46 -21 30 -38 51 -56 0
-12 -13 -24 -33 -46 21 -30 38 -51 -56 0
-12 -13 -24 -33 -46 21 30 -38 -51 -56 0
-13 22 24 16 25 33 46 -21 30 38 -51 0
-13 15 24 16 25 33 46 21 -30 -38 51 0
-12 22 32 16 25 33 46 -21 30 38 -51 0
-12 15 32 16 25 33 46 21 -30 -38 51 0
-13 15 24 32 16 25 46 21 -30 -38 56 0
-12 22 15 24 32 33 46 -21 30 38 -56 0
-12 15 24 32 16 33 46 21 -30 -38 56 0
-12 -24 32 26 -34 47 19 -28 36 49 0
-12 -13 15 24 26 -47 -19 28 36 58 0
-12 -13 15 32 34 -47 -19 28 36 58 0
-13 -24 32 17 34 -47 19 28 -49 58 0
-12 24 -32 17 26 -47 19 36 -49 58 0
-13 15 -24 17 34 -47 28 36 -49 58 0
-12 -13 -32 -26 -47 -19 -28 -36 49 58 0
-12 -13 -32 -26 -47 -19 28 -36 -49 58 0
-12 -13 -32 -26 -47 -19 -28 36 49 -58 0
-12 -13 -32 -26 -47 19 -28 36 -49 -58 0
-12 -13 -32 -26 -47 19 28 -36 -49 -58 0
-12 -13 -24 -34 -47 -19 -28 -36 49 58 0
-12 -13 -24 -34 -47 -19 -28 36 -49 58 0
-12 -13 -24 -34 -47 -19 28 -36 49 -58 0
-12 -13 -24 -34 -47 19 -28 36 -49 -58 0
-12 -13 -24 -34 -47 19 28 -36 -49 -58 0
-13 15 24 17 26 34 47 19 -28 -36 49 0
-12 15 32 17 26 34 47 19 -28 -36 49 0
-13 22 15 24 32 26 47 -19 28 36 -58 0
-12 22 15 24 32 34 47 -19 28 36 -58 0
-12 15 24 32 17 34 47 19 -28 -36 58 0
-12 -13 -32 -26 -47 -20 -29 -37 50 59 0
-12 -13 -32 -26 -47 -20 29 -37 -50 59 0
-12 -13 -24 -34 -47 -20 -29 37 -50 59 0
-12 -13 -24 -34 -47 -20 29 -37 50 -59 0
-12 -13 -24 -34 -47 20 -29 37 -50 -59 0
-12 -13 -24 -34 -47 20 29 -37 -50 -59 0
-12 -13 15 24 26 -47 -21 30 38 60 0
-13 -24 32 26 -34 47 21 30 -38 60 0
-13 22 -24 17 -26 34 21 -30 51 60 0
-12 22 -24 32 -34 47 21 -30 51 60 0
-13 15 32 -26 34 -47 21 30 51 -60 0
-12 15 24 26 -34 -47 21 38 51 -60 0
-12 15 24 17 -34 -47 30 38 51 -60 0
-13 15 -24 17 34 -47 30 38 -51 60 0
-12 -13 -32 -26 -47 -21 -30 -38 51 60 0
-12 -13 -32 -26 -47 -21 30 -38 -51 60 0
-12 -13 -32 -26 -47 -21 -30 38 51 -60 0
-12 -13 -32 -26 -47 21 -30 38 -51 -60 0
-12 -13 -32 -26 -47 21 30 -38 -51 -60 0
-12 -13 -24 -34 -47 -21 -30 -38 51 60 0
-12 -13 -24 -34 -47 -21 -30 38 -51 60 0
-12 -13 -24 -34 -47 -21 30 -38 51 -60 0
-12 -13 -24 -34 -47 21 30 -38 -51 -60 0
-13 22 24 17 26 34 47 -21 30 38 -51 0
-13 15 24 17 26 34 47 21 -30 -38 51 0
-12 22 32 17 26 34 47 -21 30 38 -51 0
-13 15 24 32 17 26 47 21 -30 -38 60 0
-12 22 15 24 32 34 47 -21 30 38 -60 0
-12 -13 32 18 35 -48 -19 28 36 49 0
-13 -24 32 18 35 -48 19 28 -49 61 0
-12 -13 -32 -27 -48 -19 -28 -36 49 61 0
-12 -13 -32 -27 -48 -19 28 -36 -49 61 0
-12 -13 -32 -27 -48 -19 -28 36 49 -61 0
-12 -13 -32 -27 -48 19 -28 36 -49 -61 0
-12 -13 -32 -27 -48 19 28 -36 -49 -61 0
-12 -13 -24 -35 -48 -19 -28 -36 49 61 0
-12 -13 -24 -35 -48 -19 -28 36 -49 61 0
-12 -13 -24 -35 -48 -19 28 -36 49 -61 0
-12 -13 -24 -35 -48 19 -28 36 -49 -61 0
-12 -13 -24 -35 -48 19 28 -36 -49 -61 0
-13 22 24 18 27 35 48 -19 28 36 -49 0
-12 22 32 18 27 35 48 -19 28 36 -49 0
-12 22 15 24 32 35 48 -19 28 36 -61 0
-12 -13 15 24 27 -48 -20 29 37 62 0
-12 -13 -32 -27 -48 -20 29 -37 -50 62 0
-12 -13 -32 -27 -48 -20 -29 37 50 -62 0
-12 -13 -24 -35 -48 20 29 -37 -50 -62 0
-12 -13 32 18 35 -48 -21 30 38 51 0
-12 -13 15 24 27 -48 -21 30 38 63 0
-12 22 -24 32 -35 48 21 -30 51 63 0
-13 15 32 -27 35 -48 21 30 51 -63 0
-12 -13 -32 -27 -48 -21 -30 -38 51 63 0
-12 -13 -32 -27 -48 -21 30 -38 -51 63 0
-12 -13 -32 -27 -48 21 -30 38 -51 -63 0
-12 -13 -32 -27 -48 21 30 -38 -51 -63 0
-12 -13 -24 -35 -48 -21 -30 -38 51 63 0
-12 -13 -24 -35 -48 -21 -30 38 -51 63 0
-12 -13 -24 -35 -48 -21 30 -38 51 -63 0
-12 -13 -24 -35 -48 21 -30 38 -51 -63 0
-12 -13 -24 -35 -48 21 30 -38 -51 -63 0
-12 22 32 18 27 35 48 -21 30 38 -51 0
-12 15 32 18 27 35 48 21 -30 -38 51 0
-13 22 15 24 32 27 48 -21 30 38 -63 0
-12 22 15 24 32 35 48 -21 30 38 -63 0
-12 15 24 32 18 35 48 21 -30 -38 63 0
-12 -13 -24 32 -20 -29 -50 -21 -38 51 -66 0
-12 -13 16 25 26 -52 -19 28 36 58 0
-12 -13 16 33 34 -52 -19 28 36 58 0
-12 22 16 25 -33 -34 19 -36 54 58 0
-12 16 25 26 -34 -52 19 36 54 -58 0
-12 -13 -33 -26 -52 -19 -28 -36 54 58 0
-12 -13 -33 -26 -52 -19 28 -36 -54 58 0
-12 -13 -33 -26 -52 -19 -28 36 54 -58 0
-12 -13 -33 -26 -52 19 -28 36 -54 -58 0
-12 -13 -33 -26 -52 19 28 -36 -54 -58 0
-12 -13 -25 -34 -52 -19 -28 -36 54 58 0
-12 -13 -25 -34 -52 -19 -28 36 -54 58 0
-12 -13 -25 -34 -52 -19 28 -36 54 -58 0
-12 -13 -25 -34 -52 19 -28 36 -54 -58 0
-12 -13 -25 -34 -52 19 28 -36 -54 -58 0
-13 22 25 17 26 34 52 -19 28 36 -54 0
-13 16 25 17 26 34 52 19 -28 -36 54 0
-12 22 33 17 26 34 52 -19 28 36 -54 0
-12 16 33 17 26 34 52 19 -28 -36 54 0
-13 22 16 25 33 26 52 -19 28 36 -58 0
-13 16 25 33 17 26 52 19 -28 -36 58 0
-12 22 16 25 33 34 52 -19 28 36 -58 0
-12 -13 25 17 26 -52 -20 29 37 55 0
-12 -13 16 25 26 -52 -20 29 37 59 0
-12 -13 -33 -26 -52 -20 -29 -37 55 59 0
-12 -13 -33 -26 -52 -20 -29 37 55 -59 0
-12 -13 -33 -26 -52 20 -29 37 -55 -59 0
-12 -13 -33 -26 -52 20 29 -37 -55 -59 0
-12 -13 -25 -34 -52 -20 29 -37 55 -59 0
-13 22 16 25 33 26 52 -20 29 37 -59 0
-13 16 25 33 17 26 52 20 -29 -37 59 0
-12 -13 25 17 26 -52 -21 30 38 56 0
-12 -25 33 26 -34 52 21 -30 38 56 0
-12 -13 16 25 26 -52 -21 30 38 60 0
-13 -25 33 26 -34 52 21 30 -38 60 0
-12 22 -33 -26 34 52 21 -30 56 60 0
-13 16 33 -26 34 -52 21 30 56 -60 0
-12 25 -33 17 26 -52 21 38 -56 60 0
-13 22 -25 26 -34 52 21 -38 56 60 0
-12 16 -33 17 26 -52 30 38 -56 60 0
-12 -13 -33 -26 -52 -21 -30 -38 56 60 0
-12 -13 -33 -26 -52 -21 30 -38 -56 60 0
-12 -13 -33 -26 -52 -21 -30 38 56 -60 0
-12 -13 -33 -26 -52 21 -30 38 -56 -60 0
-12 -13 -33 -26 -52 21 30 -38 -56 -60 0
-12 -13 -25 -34 -52 -21 -30 -38 56 60 0
-12 -13 -25 -34 -52 -21 -30 38 -56 60 0
-12 -13 -25 -34 -52 -21 30 -38 56 -60 0
-12 -13 -25 -34 -52 21 -30 38 -56 -60 0
-12 -13 -25 -34 -52 21 30 -38 -56 -60 0
-13 22 25 17 26 34 52 -21 30 38 -56 0
-12 22 33 17 26 34 52 -21 30 38 -56 0
-13 22 16 25 33 26 52 -21 30 38 -60 0
-12 22 16 25 33 34 52 -21 30 38 -60 0
-12 16 25 33 17 34 52 21 -30 -38 60 0
-12 -13 16 25 27 -53 -19 28 36 61 0
-12 -13 16 33 35 -53 -19 28 36 61 0
-12 25 -33 18 27 -53 19 36 -54 61 0
-13 16 33 18 -27 -53 28 36 54 -61 0
-12 -13 -33 -27 -53 -19 -28 -36 54 61 0
-12 -13 -33 -27 -53 -19 28 -36 -54 61 0
-12 -13 -33 -27 -53 -19 -28 36 54 -61 0
-12 -13 -33 -27 -53 19 -28 36 -54 -61 0
-12 -13 -33 -27 -53 19 28 -36 -54 -61 0
-12 -13 -25 -35 -53 -19 -28 -36 54 61 0
-12 -13 -25 -35 -53 -19 -28 36 -54 61 0
-12 -13 -25 -35 -53 -19 28 -36 54 -61 0
-12 -13 -25 -35 -53 19 -28 36 -54 -61 0
-12 -13 -25 -35 -53 19 28 -36 -54 -61 0
-13 22 25 18 27 35 53 -19 28 36 -54 0
-12 22 33 18 27 35 53 -19 28 36 -54 0
-12 -13 -33 -27 -53 -20 -29 -37 55 62 0
-12 -13 -33 -27 -53 -20 29 -37 -55 62 0
-12 -13 -33 -27 -53 -20 -29 37 55 -62 0
-12 -13 -33 -27 -53 20 -29 37 -55 -62 0
-12 -13 -33 -27 -53 20 29 -37 -55 -62 0
-13 22 16 25 33 27 53 -20 29 37 -62 0
-12 -13 25 18 27 -53 -21 30 38 56 0
-13 25 -33 -27 35 53 21 30 -38 56 0
-12 -13 16 33 35 -53 -21 30 38 63 0
-13 16 33 -27 35 -53 21 30 56 -63 0
-12 25 -33 18 27 -53 21 38 -56 63 0
-12 16 25 18 -35 -53 30 38 56 -63 0
-12 -13 -33 -27 -53 -21 -30 -38 56 63 0
-12 -13 -33 -27 -53 -21 30 -38 -56 63 0
-12 -13 -33 -27 -53 -21 -30 38 56 -63 0
-12 -13 -33 -27 -53 21 -30 38 -56 -63 0
-12 -13 -33 -27 -53 21 30 -38 -56 -63 0
-12 -13 -25 -35 -53 -21 -30 -38 56 63 0
-12 -13 -25 -35 -53 -21 -30 38 -56 63 0
-12 -13 -25 -35 -53 -21 30 -38 56 -63 0
-12 -13 -25 -35 -53 21 -30 38 -56 -63 0
-12 -13 -25 -35 -53 21 30 -38 -56 -63 0
-13 22 25 18 27 35 53 -21 30 38 -56 0
-13 16 25 18 27 35 53 21 -30 -38 56 0
-12 22 33 18 27 35 53 -21 30 38 -56 0
-12 16 33 18 27 35 53 21 -30 -38 56 0
-12 25 33 18 27 35 53 -21 30 -38 56 0
-13 22 16 25 33 27 53 -21 30 38 -63 0
-12 22 16 25 33 35 53 -21 30 38 -63 0
-12 16 25 33 18 35 53 21 -30 -38 63 0
-12 16 25 33 27 35 53 -21 30 -38 63 0
-12 -13 -25 33 -19 -36 54 -21 -30 -56 -65 0
-12 -13 -25 33 -20 -37 55 -21 -30 -56 -66 0
-12 -13 17 26 27 -57 -19 28 36 61 0
-12 -13 17 34 35 -57 -19 28 36 61 0
-13 -26 34 27 -35 57 19 28 -36 61 0
-13 17 34 -27 35 -57 19 28 58 -61 0
-12 17 26 27 -35 -57 19 36 58 -61 0
-12 17 26 18 -35 -57 28 36 58 -61 0
-12 -13 -34 -27 -57 -19 -28 -36 58 61 0
-12 -13 -34 -27 -57 -19 28 -36 -58 61 0
-12 -13 -34 -27 -57 -19 -28 36 58 -61 0
-12 -13 -34 -27 -57 19 -28 36 -58 -61 0
-12 -13 -34 -27 -57 19 28 -36 -58 -61 0
-12 -13 -26 -35 -57 -19 -28 -36 58 61 0
-12 -13 -26 -35 -57 -19 -28 36 -58 61 0
-12 -13 -26 -35 -57 -19 28 -36 58 -61 0
-12 -13 -26 -35 -57 19 -28 36 -58 -61 0
-12 -13 -26 -35 -57 19 28 -36 -58 -61 0
-13 22 26 18 27 35 57 -19 28 36 -58 0
-12 22 34 18 27 35 57 -19 28 36 -58 0
-12 17 34 18 27 35 57 19 -28 -36 58 0
-13 17 26 34 18 27 57 19 -28 -36 61 0
-12 -13 -34 -27 -57 -20 -29 -37 59 62 0
-12 -13 -34 -27 -57 -20 -29 37 59 -62 0
-12 -13 -34 -27 -57 20 -29 37 -59 -62 0
-12 -13 -34 -27 -57 20 29 -37 -59 -62 0
-12 -13 -26 -35 -57 -20 -29 -37 59 62 0
-12 -13 -26 -35 -57 -20 29 -37 59 -62 0
-12 22 34 18 27 35 57 -20 29 37 -59 0
-12 17 34 18 27 35 57 20 -29 -37 59 0
-12 -26 34 27 -35 57 21 -30 38 60 0
-13 26 -34 -27 35 57 21 30 -38 60 0
-12 -13 17 26 27 -57 -21 30 38 63 0
-13 22 17 -26 34 -27 21 -30 60 63 0
-12 17 26 18 -35 -57 30 38 60 -63 0
-12 -13 -34 -27 -57 -21 -30 -38 60 63 0
-12 -13 -34 -27 -57 -21 30 -38 -60 63 0
-12 -13 -34 -27 -57 -21 -30 38 60 -63 0
-12 -13 -34 -27 -57 21 -30 38 -60 -63 0
-12 -13 -34 -27 -57 21 30 -38 -60 -63 0
-12 -13 -26 -35 -57 -21 -30 -38 60 63 0
-12 -13 -26 -35 -57 -21 -30 38 -60 63 0
-12 -13 -26 -35 -57 -21 30 -38 60 -63 0
-12 -13 -26 -35 -57 21 -30 38 -60 -63 0
-12 -13 -26 -35 -57 21 30 -38 -60 -63 0
-13 22 26 18 27 35 57 -21 30 38 -60 0
-13 17 26 18 27 35 57 21 -30 -38 60 0
-12 22 34 18 27 35 57 -21 30 38 -60 0
-12 17 34 18 27 35 57 21 -30 -38 60 0
-13 17 26 34 18 27 57 21 -30 -38 63 0
-12 22 17 26 34 35 57 -21 30 38 -63 0
-12 -13 27 -35 -19 -28 -36 30 -38 -63 -65 0
-12 -14 39 16 40 -46 -19 28 43 49 0
-12 -14 15 39 40 -46 -19 28 43 54 0
-14 -24 39 25 -40 46 19 28 -43 54 0
-14 23 15 -24 39 -25 19 -28 49 54 0
-14 -24 39 16 40 -46 19 28 -49 54 0
-14 15 39 -25 40 -46 19 28 49 -54 0
-12 -14 -39 -25 -46 -19 -28 -43 49 54 0
-12 -14 -39 -25 -46 -19 28 -43 -49 54 0
-12 -14 -39 -25 -46 -19 -28 43 49 -54 0
-12 -14 -39 -25 -46 19 -28 43 -49 -54 0
-12 -14 -39 -25 -46 19 28 -43 -49 -54 0
-12 -14 -24 -40 -46 -19 -28 -43 49 54 0
-12 -14 -24 -40 -46 -19 -28 43 -49 54 0
-12 -14 -24 -40 -46 -19 28 -43 49 -54 0
-12 -14 -24 -40 -46 19 -28 43 -49 -54 0
-12 -14 -24 -40 -46 19 28 -43 -49 -54 0
-14 15 24 16 25 40 46 19 -28 -43 49 0
-12 15 39 16 25 40 46 19 -28 -43 49 0
-14 23 15 24 39 25 46 -19 28 43 -54 0
-12 23 15 24 39 40 46 -19 28 43 -54 0
-12 15 24 39 16 40 46 19 -28 -43 54 0
-12 -14 24 16 25 -46 -20 29 44 50 0
-12 -14 39 16 40 -46 -20 29 44 50 0
-12 -14 15 39 40 -46 -20 29 44 55 0
-12 -14 -39 -25 -46 -20 29 -44 -50 55 0
-12 -14 -24 -40 -46 -20 -29 -44 50 55 0
-12 -14 -24 -40 -46 -20 29 -44 50 -55 0
-12 -14 -24 -40 -46 20 -29 44 -50 -55 0
-12 15 24 39 16 40 46 20 -29 -44 55 0
-12 -14 39 16 40 -46 -21 30 45 51 0
-12 -14 15 24 25 -46 -21 30 45 56 0
-12 -14 15 39 40 -46 -21 30 45 56 0
-12 23 -24 39 -40 46 21 -30 51 56 0
-14 -24 39 16 40 -46 21 30 -51 56 0
-12 23 -39 16 25 -40 21 -45 51 56 0
-12 15 24 25 -40 -46 21 45 51 -56 0
-14 15 39 16 -25 -46 30 45 51 -56 0
-12 -14 -39 -25 -46 -21 -30 -45 51 56 0
-12 -14 -39 -25 -46 -21 30 -45 -51 56 0
-12 -14 -39 -25 -46 -21 -30 45 51 -56 0
-12 -14 -39 -25 -46 21 -30 45 -51 -56 0
-12 -14 -39 -25 -46 21 30 -45 -51 -56 0
-12 -14 -24 -40 -46 -21 -30 -45 51 56 0
-12 -14 -24 -40 -46 -21 -30 45 -51 56 0
-12 -14 -24 -40 -46 -21 30 -45 51 -56 0
-12 -14 -24 -40 -46 21 -30 45 -51 -56 0
-12 -14 -24 -40 -46 21 30 -45 -51 -56 0
-14 23 24 16 25 40 46 -21 30 45 -51 0
-14 23 15 24 39 25 46 -21 30 45 -56 0
-14 15 24 39 16 25 46 21 -30 -45 56 0
-12 15 24 39 16 40 46 21 -30 -45 56 0
-12 -14 39 17 41 -47 -19 28 43 49 0
-12 -14 15 24 26 -47 -19 28 43 58 0
-12 -14 -39 -26 -47 -19 -28 -43 49 58 0
-12 -14 -39 -26 -47 -19 28 -43 -49 58 0
-12 -14 -39 -26 -47 -19 -28 43 49 -58 0
-12 -14 -39 -26 -47 19 -28 43 -49 -58 0
-12 -14 -39 -26 -47 19 28 -43 -49 -58 0
-12 -14 -24 -41 -47 -19 -28 -43 49 58 0
-12 -14 -24 -41 -47 -19 -28 43 -49 58 0
-12 -14 -24 -41 -47 -19 28 -43 49 -58 0
-12 -14 -24 -41 -47 19 -28 43 -49 -58 0
-12 -14 -24 -41 -47 19 28 -43 -49 -58 0
-12 23 39 17 26 41 47 -19 28 43 -49 0
-12 24 39 17 26 41 47 -19 28 -43 49 0
-14 23 15 24 39 26 47 -19 28 43 -58 0
-12 23 15 24 39 41 47 -19 28 43 -58 0
-12 -24 39 26 -41 47 20 -29 44 50 0
-12 -14 15 24 26 -47 -20 29 44 59 0
-12 -14 15 39 41 -47 -20 29 44 59 0
-12 -14 -39 -26 -47 -20 29 -44 -50 59 0
-12 -14 -24 -41 -47 -20 -29 -44 50 59 0
-12 -14 -24 -41 -47 -20 -29 44 -50 59 0
-12 -14 -24 -41 -47 -20 29 -44 50 -59 0
-12 -14 -24 -41 -47 20 -29 44 -50 -59 0
-12 -14 -24 -41 -47 20 29 -44 -50 -59 0
-14 23 24 17 26 41 47 -20 29 44 -50 0
-14 23 15 24 39 26 47 -20 29 44 -59 0
-12 -14 39 17 41 -47 -21 30 45 51 0
-14 24 -39 -26 41 47 21 30 -45 51 0
-12 -14 15 24 26 -47 -21 30 45 60 0
-12 -14 15 39 41 -47 -21 30 45 60 0
-12 24 -39 -26 41 47 21 -30 45 60 0
-14 -24 39 26 -41 47 21 30 -45 60 0
-14 -24 39 17 41 -47 21 30 -51 60 0
-14 15 39 -26 41 -47 21 30 51 -60 0
-12 23 15 24 -39 -41 21 -45 51 60 0
-12 24 -39 17 26 -47 21 45 -51 60 0
-12 15 24 26 -41 -47 21 45 51 -60 0
-12 -14 -39 -26 -47 -21 -30 -45 51 60 0
-12 -14 -39 -26 -47 -21 30 -45 -51 60 0
-12 -14 -39 -26 -47 -21 -30 45 51 -60 0
-12 -14 -39 -26 -47 21 -30 45 -51 -60 0
-12 -14 -39 -26 -47 21 30 -45 -51 -60 0
-12 -14 -24 -41 -47 -21 -30 -45 51 60 0
-12 -14 -24 -41 -47 -21 -30 45 -51 60 0
-12 -14 -24 -41 -47 -21 30 -45 51 -60 0
-12 -14 -24 -41 -47 21 -30 45 -51 -60 0
-12 -14 -24 -41 -47 21 30 -45 -51 -60 0
-14 23 24 17 26 41 47 -21 30 45 -51 0
-14 15 24 17 26 41 47 21 -30 -45 51 0
-12 23 39 17 26 41 47 -21 30 45 -51 0
-12 15 39 17 26 41 47 21 -30 -45 51 0
-14 23 15 24 39 26 47 -21 30 45 -60 0
-14 15 24 39 17 26 47 21 -30 -45 60 0
-12 23 15 24 39 41 47 -21 30 45 -60 0
-12 -14 15 24 27 -48 -19 28 43 61 0
-12 -14 15 39 42 -48 -19 28 43 61 0
-14 -24 39 18 42 -48 19 28 -49 61 0
-14 15 39 -27 42 -48 19 28 49 -61 0
-12 15 24 27 -42 -48 19 43 49 -61 0
-12 -14 -39 -27 -48 -19 -28 -43 49 61 0
-12 -14 -39 -27 -48 -19 28 -43 -49 61 0
-12 -14 -39 -27 -48 -19 -28 43 49 -61 0
-12 -14 -39 -27 -48 19 -28 43 -49 -61 0
-12 -14 -39 -27 -48 19 28 -43 -49 -61 0
-12 -14 -24 -42 -48 -19 -28 -43 49 61 0
-12 -14 -24 -42 -48 -19 -28 43 -49 61 0
-12 -14 -24 -42 -48 -19 28 -43 49 -61 0
-12 -14 -24 -42 -48 19 -28 43 -49 -61 0
-12 -14 -24 -42 -48 19 28 -43 -49 -61 0
-12 15 39 18 27 42 48 19 -28 -43 49 0
-14 23 15 24 39 27 48 -19 28 43 -61 0
-12 23 15 24 39 42 48 -19 28 43 -61 0
-12 15 24 39 18 42 48 19 -28 -43 61 0
-12 -14 24 18 27 -48 -20 29 44 50 0
-12 -14 -39 -27 -48 20 -29 44 -50 -62 0
-12 -14 24 18 27 -48 -21 30 45 51 0
-12 -14 39 18 42 -48 -21 30 45 51 0
-12 -24 39 27 -42 48 21 -30 45 51 0
-14 24 -39 -27 42 48 21 30 -45 51 0
-12 -14 15 24 27 -48 -21 30 45 63 0
-12 -14 15 39 42 -48 -21 30 45 63 0
-12 24 -39 -27 42 48 21 -30 45 63 0
-14 15 39 -27 42 -48 21 30 51 -63 0
-12 24 -39 18 27 -48 21 45 -51 63 0
-12 -14 -39 -27 -48 -21 -30 -45 51 63 0
-12 -14 -39 -27 -48 -21 30 -45 -51 63 0
-12 -14 -39 -27 -48 -21 -30 45 51 -63 0
-12 -14 -39 -27 -48 21 -30 45 -51 -63 0
-12 -14 -39 -27 -48 21 30 -45 -51 -63 0
-12 -14 -24 -42 -48 -21 -30 -45 51 63 0
-12 -14 -24 -42 -48 -21 -30 45 -51 63 0
-12 -14 -24 -42 -48 -21 30 -45 51 -63 0
-12 -14 -24 -42 -48 21 -30 45 -51 -63 0
-12 -14 -24 -42 -48 21 30 -45 -51 -63 0
-14 15 24 18 27 42 48 21 -30 -45 51 0
-12 23 39 18 27 42 48 -21 30 45 -51 0
-12 15 39 18 27 42 48 21 -30 -45 51 0
-14 15 24 39 18 27 48 21 -30 -45 63 0
-12 23 15 24 39 42 48 -21 30 45 -63 0
-12 15 24 39 18 42 48 21 -30 -45 63 0
-12 -14 40 17 41 -52 -19 28 43 54 0
-14 16 40 -26 41 -52 19 28 54 -58 0
-12 23 -40 17 26 -41 19 -43 54 58 0
-12 25 -40 17 26 -52 19 43 -54 58 0
-12 -14 -40 -26 -52 -19 -28 -43 54 58 0
-12 -14 -40 -26 -52 -19 28 -43 -54 58 0
-12 -14 -40 -26 -52 -19 -28 43 54 -58 0
-12 -14 -40 -26 -52 19 -28 43 -54 -58 0
-12 -14 -40 -26 -52 19 28 -43 -54 -58 0
-12 -14 -25 -41 -52 -19 -28 -43 54 58 0
-12 -14 -25 -41 -52 -19 -28 43 -54 58 0
-12 -14 -25 -41 -52 -19 28 -43 54 -58 0
-12 -14 -25 -41 -52 19 -28 43 -54 -58 0
-12 -14 -25 -41 -52 19 28 -43 -54 -58 0
-14 23 25 17 26 41 52 -19 28 43 -54 0
-12 23 40 17 26 41 52 -19 28 43 -54 0
-14 23 16 25 40 26 52 -19 28 43 -58 0
-14 16 25 40 17 26 52 19 -28 -43 58 0
-12 23 16 25 40 41 52 -19 28 43 -58 0
-12 16 25 40 17 41 52 19 -28 -43 58 0
-12 -25 40 26 -41 52 20 -29 44 55 0
-12 -14 16 25 26 -52 -20 29 44 59 0
-12 -14 -40 -26 -52 -20 -29 44 55 -59 0
-12 -14 -40 -26 -52 20 29 -44 -55 -59 0
-12 -14 -25 -41 -52 -20 29 -44 55 -59 0
-14 23 25 17 26 41 52 -20 29 44 -55 0
-14 23 16 25 40 26 52 -20 29 44 -59 0
-14 16 25 40 17 26 52 20 -29 -44 59 0
-12 -14 25 17 26 -52 -21 30 45 56 0
-12 -14 40 17 41 -52 -21 30 45 56 0
-12 -25 40 26 -41 52 21 -30 45 56 0
-14 25 -40 -26 41 52 21 30 -45 56 0
-12 -14 16 25 26 -52 -21 30 45 60 0
-12 -14 16 40 41 -52 -21 30 45 60 0
-12 25 -40 -26 41 52 21 -30 45 60 0
-14 -25 40 26 -41 52 21 30 -45 60 0
-14 23 16 -25 40 -26 21 -30 56 60 0
-12 23 -25 40 -41 52 21 -30 56 60 0
-14 -25 40 17 41 -52 21 30 -56 60 0
-14 16 40 -26 41 -52 21 30 56 -60 0
-12 16 25 26 -41 -52 21 45 56 -60 0
-12 16 25 17 -41 -52 30 45 56 -60 0
-12 -14 -40 -26 -52 -21 -30 -45 56 60 0
-12 -14 -40 -26 -52 -21 30 -45 -56 60 0
-12 -14 -40 -26 -52 -21 -30 45 56 -60 0
-12 -14 -40 -26 -52 21 -30 45 -56 -60 0
-12 -14 -40 -26 -52 21 30 -45 -56 -60 0
-12 -14 -25 -41 -52 -21 -30 -45 56 60 0
-12 -14 -25 -41 -52 -21 -30 45 -56 60 0
-12 -14 -25 -41 -52 -21 30 -45 56 -60 0
-12 -14 -25 -41 -52 21 -30 45 -56 -60 0
-12 -14 -25 -41 -52 21 30 -45 -56 -60 0
-14 23 25 17 26 41 52 -21 30 45 -56 0
-14 16 25 17 26 41 52 21 -30 -45 56 0
-12 23 40 17 26 41 52 -21 30 45 -56 0
-12 16 40 17 26 41 52 21 -30 -45 56 0
-12 23 16 25 40 41 52 -21 30 45 -60 0
-12 -14 40 18 42 -53 -19 28 43 54 0
-12 -14 16 25 27 -53 -19 28 43 61 0
-12 -14 16 40 42 -53 -19 28 43 61 0
-12 25 -40 -27 42 53 19 -28 43 61 0
-14 -25 40 27 -42 53 19 28 -43 61 0
-14 -25 40 18 42 -53 19 28 -54 61 0
-14 16 40 -27 42 -53 19 28 54 -61 0
-14 16 40 18 -27 -53 28 43 54 -61 0
-12 -14 -40 -27 -53 -19 -28 -43 54 61 0
-12 -14 -40 -27 -53 -19 28 -43 -54 61 0
-12 -14 -40 -27 -53 -19 -28 43 54 -61 0
-12 -14 -40 -27 -53 19 -28 43 -54 -61 0
-12 -14 -40 -27 -53 19 28 -43 -54 -61 0
-12 -14 -25 -42 -53 -19 -28 -43 54 61 0
-12 -14 -25 -42 -53 -19 -28 43 -54 61 0
-12 -14 -25 -42 -53 -19 28 -43 54 -61 0
-12 -14 -25 -42 -53 19 -28 43 -54 -61 0
-12 -14 -25 -42 -53 19 28 -43 -54 -61 0
-14 23 25 18 27 42 53 -19 28 43 -54 0
-12 23 40 18 27 42 53 -19 28 43 -54 0
-12 16 40 18 27 42 53 19 -28 -43 54 0
-14 23 16 25 40 27 53 -19 28 43 -61 0
-14 16 25 40 18 27 53 19 -28 -43 61 0
-12 23 16 25 40 42 53 -19 28 43 -61 0
-12 16 25 40 18 42 53 19 -28 -43 61 0
-12 -14 25 18 27 -53 -20 29 44 55 0
-14 25 -40 -27 42 53 20 29 -44 55 0
-12 25 -40 -27 42 53 20 -29 44 62 0
-12 -14 -40 -27 -53 -20 -29 -44 55 62 0
-12 -14 -40 -27 -53 -20 29 -44 -55 62 0
-12 -14 -40 -27 -53 20 -29 44 -55 -62 0
-12 -14 -40 -27 -53 20 29 -44 -55 -62 0
-14 23 25 18 27 42 53 -20 29 44 -55 0
-12 -14 25 18 27 -53 -21 30 45 56 0
-12 -14 40 18 42 -53 -21 30 45 56 0
-12 -14 16 40 42 -53 -21 30 45 63 0
-12 25 -40 -27 42 53 21 -30 45 63 0
-14 23 -25 18 -27 42 21 -30 56 63 0
-14 16 40 -27 42 -53 21 30 56 -63 0
-14 23 25 -40 -27 53 21 -45 56 63 0
-12 -14 -40 -27 -53 -21 -30 -45 56 63 0
-12 -14 -40 -27 -53 -21 30 -45 -56 63 0
-12 -14 -40 -27 -53 -21 -30 45 56 -63 0
-12 -14 -40 -27 -53 21 -30 45 -56 -63 0
-12 -14 -40 -27 -53 21 30 -45 -56 -63 0
-12 -14 -25 -42 -53 -21 -30 -45 56 63 0
-12 -14 -25 -42 -53 -21 -30 45 -56 63 0
-12 -14 -25 -42 -53 -21 30 -45 56 -63 0
-12 -14 -25 -42 -53 21 -30 45 -56 -63 0
-12 -14 -25 -42 -53 21 30 -45 -56 -63 0
-14 23 25 18 27 42 53 -21 30 45 -56 0
-14 16 25 18 27 42 53 21 -30 -45 56 0
-12 23 40 18 27 42 53 -21 30 45 -56 0
-12 -14 -25 40 -19 -43 54 -21 -30 -56 -65 0
-12 -14 41 18 42 -57 -19 28 43 58 0
-12 26 -41 -27 42 57 19 -28 43 61 0
-14 23 -26 18 -27 42 19 -28 58 61 0
-12 -14 -41 -27 -57 -19 -28 -43 58 61 0
-12 -14 -41 -27 -57 -19 28 -43 -58 61 0
-12 -14 -41 -27 -57 -19 -28 43 58 -61 0
-12 -14 -41 -27 -57 19 -28 43 -58 -61 0
-12 -14 -41 -27 -57 19 28 -43 -58 -61 0
-12 -14 -26 -42 -57 -19 -28 -43 58 61 0
-12 -14 -26 -42 -57 -19 -28 43 -58 61 0
-12 -14 -26 -42 -57 -19 28 -43 58 -61 0
-14 23 26 18 27 42 57 -19 28 43 -58 0
-14 17 26 18 27 42 57 19 -28 -43 58 0
-12 23 41 18 27 42 57 -19 28 43 -58 0
-12 17 41 18 27 42 57 19 -28 -43 58 0
-14 26 41 18 27 42 57 -19 -28 43 58 0
-12 17 26 41 18 42 57 19 -28 -43 61 0
-14 26 -41 -27 42 57 20 29 -44 59 0
-12 -14 -41 -27 -57 -20 -29 44 59 -62 0
-12 -14 -41 -27 -57 20 -29 44 -59 -62 0
-14 23 26 18 27 42 57 -20 29 44 -59 0
-12 23 17 26 41 42 57 -20 29 44 -62 0
-12 -14 17 26 27 -57 -21 30 45 63 0
-12 26 -41 -27 42 57 21 -30 45 63 0
-14 -26 41 27 -42 57 21 30 -45 63 0
-12 17 26 27 -42 -57 21 45 60 -63 0
-12 -14 -41 -27 -57 -21 -30 -45 60 63 0
-12 -14 -41 -27 -57 -21 30 -45 -60 63 0
-12 -14 -41 -27 -57 -21 -30 45 60 -63 0
-12 -14 -41 -27 -57 21 -30 45 -60 -63 0
-12 -14 -41 -27 -57 21 30 -45 -60 -63 0
-12 -14 -26 -42 -57 -21 -30 -45 60 63 0
-12 -14 -26 -42 -57 -21 -30 45 -60 63 0
-12 -14 -26 -42 -57 -21 30 -45 60 -63 0
-12 -14 -26 -42 -57 21 -30 45 -60 -63 0
-12 -14 -26 -42 -57 21 30 -45 -60 -63 0
-14 17 26 18 27 42 57 21 -30 -45 60 0
-12 23 41 18 27 42 57 -21 30 45 -60 0
-12 17 41 18 27 42 57 21 -30 -45 60 0
-14 23 17 26 41 27 57 -21 30 45 -63 0
-12 23 17 26 41 42 57 -21 30 45 -63 0
-12 17 26 41 18 42 57 21 -30 -45 63 0
-12 -14 -26 -41 20 -44 -59 21 -30 -60 -66 0
-12 -14 -26 -41 -20 -29 44 -30 45 -60 -66 0
-12 -24 16 17 26 -52 19 -28 49 54 0
-12 15 16 25 -46 -26 19 -28 49 58 0
-12 15 24 16 -46 -26 19 -28 54 58 0
-12 15 24 -25 17 -47 19 -28 54 58 0
-12 16 25 26 -47 -52 19 49 54 -58 0
-12 15 16 25 -46 -47 28 -49 54 58 0
-12 16 -46 17 26 -52 28 49 -54 58 0
-12 15 24 17 -47 -52 28 49 54 -58 0
15 -24 16 17 26 47 52 19 -28 49 -54 0
15 24 -25 17 26 47 52 -19 28 49 -54 0
-24 16 25 17 26 47 52 -19 28 -49 54 0
15 24 16 25 46 -26 52 -19 28 49 -58 0
15 16 25 46 17 -26 52 19 -28 -49 58 0
-24 16 25 46 17 26 52 -19 28 -49 58 0
15 24 16 25 46 -26 47 -19 28 54 -58 0
15 24 16 46 17 -26 47 19 -28 -54 58 0
15 24 -25 46 17 26 47 -19 28 -54 58 0
15 16 -25 17 26 47 52 20 -29 -50 55 0
-12 -24 16 17 26 -52 21 -30 51 56 0
-12 15 24 16 -46 -26 21 -30 56 60 0
-12 15 24 -25 17 -47 21 -30 56 60 0
-12 15 24 16 -46 -52 30 51 -56 60 0
-12 16 -46 17 26 -52 30 51 -56 60 0
-12 16 25 17 -47 -52 30 51 56 -60 0
15 16 -25 17 26 47 52 21 -30 -51 56 0
-24 16 25 17 26 47 52 -21 30 -51 56 0
15 24 16 25 46 -26 52 -21 30 51 -60 0
15 16 25 46 17 -26 52 21 -30 -51 60 0
-24 16 25 46 17 26 52 -21 30 -51 60 0
15 24 16 25 46 -26 47 -21 30 56 -60 0
15 24 16 46 17 -26 47 21 -30 -56 60 0
15 24 -25 46 17 26 47 -21 30 -56 60 0
-12 -24 16 18 27 -53 19 -28 49 54 0
-12 15 16 25 -46 -27 19 -28 49 61 0
-12 -24 16 25 18 -53 19 -28 49 61 0
-12 15 24 -25 18 -48 19 -28 54 61 0
-12 15 24 27 -48 -53 19 49 54 -61 0
-12 16 25 27 -48 -53 19 49 54 -61 0
15 24 -25 18 27 48 53 -19 28 49 -54 0
-24 16 25 18 27 48 53 -19 28 -49 54 0
15 24 16 25 46 -27 53 -19 28 49 -61 0
-24 16 25 46 18 27 53 -19 28 -49 61 0
15 24 16 25 46 -27 48 -19 28 54 -61 0
15 24 16 46 18 -27 48 19 -28 -54 61 0
15 24 -25 46 18 27 48 -19 28 -54 61 0
-12 15 -25 18 27 -48 21 -30 51 56 0
-12 -24 16 18 27 -53 21 -30 51 56 0
-12 -24 46 27 48 -53 21 -30 51 56 0
-12 15 16 25 -46 -27 21 -30 51 63 0
-12 15 24 16 -46 -27 21 -30 56 63 0
-12 24 16 25 -46 -48 21 -51 56 63 0
-12 16 25 18 -48 -53 30 51 56 -63 0
15 -24 16 18 27 48 53 21 -30 51 -56 0
15 16 -25 18 27 48 53 21 -30 -51 56 0
15 24 16 25 46 -27 53 -21 30 51 -63 0
15 16 25 46 18 -27 53 21 -30 -51 63 0
15 24 16 -25 46 18 48 21 -30 56 -63 0
15 24 16 25 46 -27 48 -21 30 56 -63 0
15 24 16 46 18 -27 48 21 -30 -56 63 0
15 24 -25 46 18 27 48 -21 30 -56 63 0
-12 -24 16 25 46 20 -29 55 21 -30 -66 0
-12 15 17 26 -47 -27 19 -28 49 61 0
-12 -24 17 26 18 -57 19 -28 49 61 0
-12 15 24 17 -47 -27 19 -28 58 61 0
15 24 -26 18 27 48 57 -19 28 49 -58 0
-24 17 26 18 27 48 57 -19 28 -49 58 0
15 17 26 47 18 -27 57 19 -28 -49 61 0
-24 17 26 47 18 27 57 -19 28 -49 61 0
15 24 17 26 47 -27 48 -19 28 58 -61 0
15 24 -26 47 18 27 48 -19 28 -58 61 0
-12 15 17 26 -47 -27 21 -30 51 63 0
-12 15 24 17 -47 -27 21 -30 60 63 0
-12 15 24 -26 18 -48 21 -30 60 63 0
-12 15 24 17 -47 -57 30 51 -60 63 0
-12 17 -47 18 27 -57 30 51 -60 63 0
-12 15 24 18 -48 -57 30 51 60 -63 0
-12 17 26 18 -48 -57 30 51 60 -63 0
15 -24 17 18 27 48 57 21 -30 51 -60 0
15 -24 17 26 47 18 57 21 -30 51 -63 0
-24 17 26 47 18 27 57 -21 30 -51 63 0
15 24 17 -26 47 18 48 21 -30 60 -63 0
15 24 17 26 47 -27 48 -21 30 60 -63 0
15 24 17 47 18 -27 48 21 -30 -60 63 0
15 24 -26 47 18 27 48 -21 30 -60 63 0
-12 15 -26 -47 -28 -49 -58 -21 -30 51 -65 0
-12 16 17 26 -52 -27 19 -28 54 61 0
-12 16 25 17 -52 -27 19 -28 58 61 0
-12 16 -52 18 27 -53 28 -54 58 61 0
16 25 -26 18 27 53 57 -19 28 54 -58 0
16 17 -26 18 27 53 57 19 -28 -54 58 0
-25 17 26 18 27 53 57 -19 28 -54 58 0
-25 17 26 52 18 27 57 -19 28 -54 61 0
16 25 17 26 52 -27 53 -19 28 58 -61 0
16 25 17 52 18 -27 53 19 -28 -58 61 0
16 25 -26 52 18 27 53 -19 28 -58 61 0
-12 -25 17 18 27 -57 20 -29 55 59 0
16 25 17 26 52 -27 57 -20 29 55 -62 0
16 17 26 52 18 -27 57 20 -29 -55 62 0
-12 16 -26 18 27 -53 21 -30 56 60 0
-12 -26 52 27 -53 57 21 -30 56 60 0
-12 16 17 26 -52 -27 21 -30 56 63 0
-12 -25 17 26 18 -57 21 -30 56 63 0
-12 16 25 17 -52 -27 21 -30 60 63 0
-12 26 -52 18 27 -57 21 56 -60 63 0
-12 16 -52 18 27 -53 30 -56 60 63 0
-12 17 -52 18 27 -57 30 56 -60 63 0
-12 16 25 18 -53 -57 30 56 60 -63 0
16 -25 17 18 27 53 57 21 -30 56 -60 0
16 25 -26 18 27 53 57 -21 30 56 -60 0
16 17 -26 18 27 53 57 21 -30 -56 60 0
-25 17 26 18 27 53 57 -21 30 -56 60 0
16 -25 17 26 52 18 57 21 -30 56 -63 0
16 25 17 26 52 -27 57 -21 30 56 -63 0
16 17 26 52 18 -27 57 21 -30 -56 63 0
16 25 17 -26 52 18 53 21 -30 60 -63 0
16 25 -26 52 18 27 53 -21 30 -60 63 0
-12 16 -26 -52 -19 -28 -58 21 -56 -60 -65 0
-12 16 -27 -53 -20 -29 55 -30 -56 -63 -66 0
-13 -14 32 16 33 -46 -19 36 43 49 0
-13 -14 15 32 33 -46 -19 36 43 54 0
-13 32 -39 -33 40 46 19 -36 43 54 0
-14 31 15 -32 39 -33 19 -36 49 54 0
-14 15 39 16 -33 -46 36 43 49 -54 0
-14 15 -32 16 40 -46 36 43 -49 54 0
-13 -14 -39 -33 -46 -19 -36 -43 49 54 0
-13 -14 -39 -33 -46 -19 36 -43 -49 54 0
-13 -14 -39 -33 -46 -19 -36 43 49 -54 0
-13 -14 -39 -33 -46 19 -36 43 -49 -54 0
-13 -14 -39 -33 -46 19 36 -43 -49 -54 0
-13 -14 -32 -40 -46 -19 -36 -43 49 54 0
-13 -14 -32 -40 -46 -19 -36 43 -49 54 0
-13 -14 -32 -40 -46 -19 36 -43 49 -54 0
-13 -14 -32 -40 -46 19 -36 43 -49 -54 0
-13 -14 -32 -40 -46 19 36 -43 -49 -54 0
-13 15 39 16 33 40 46 19 -36 -43 49 0
-14 31 15 32 39 33 46 -19 36 43 -54 0
-13 31 15 32 39 40 46 -19 36 43 -54 0
-13 15 32 39 16 40 46 19 -36 -43 54 0
-13 -14 15 32 33 -46 -20 37 44 55 0
-13 32 -39 -33 40 46 20 -37 44 55 0
-13 15 32 33 -40 -46 20 44 50 -55 0
-13 15 32 16 -40 -46 37 44 50 -55 0
-13 -14 -39 -33 -46 -20 37 -44 -50 55 0
-13 -14 -39 -33 -46 -20 -37 44 50 -55 0
-13 -14 -39 -33 -46 20 -37 44 -50 -55 0
-13 -14 -39 -33 -46 20 37 -44 -50 -55 0
-13 -14 -32 -40 -46 -20 -37 44 -50 55 0
-13 -14 -32 -40 -46 -20 37 -44 50 -55 0
-13 -14 -32 -40 -46 20 -37 44 -50 -55 0
-13 -14 -32 -40 -46 20 37 -44 -50 -55 0
-13 15 32 39 16 40 46 20 -37 -44 55 0
-13 -14 15 39 40 -46 -21 38 45 56 0
-14 -32 39 33 -40 46 21 38 -45 56 0
-14 31 15 -32 39 -33 21 -38 51 56 0
-14 15 39 -33 40 -46 21 38 51 -56 0
-14 31 32 -39 -33 46 21 -45 51 56 0
-13 32 -39 16 33 -46 21 45 -51 56 0
-13 15 32 33 -40 -46 21 45 51 -56 0
-13 15 32 16 -40 -46 38 45 51 -56 0
-13 -14 -39 -33 -46 -21 -38 -45 51 56 0
-13 -14 -39 -33 -46 -21 38 -45 -51 56 0
-13 -14 -39 -33 -46 -21 -38 45 51 -56 0
-13 -14 -39 -33 -46 21 -38 45 -51 -56 0
-13 -14 -39 -33 -46 21 38 -45 -51 -56 0
-13 -14 -32 -40 -46 -21 -38 -45 51 56 0
-13 -14 -32 -40 -46 -21 -38 45 -51 56 0
-13 -14 -32 -40 -46 -21 38 -45 51 -56 0
-13 -14 -32 -40 -46 21 -38 45 -51 -56 0
-13 -14 -32 -40 -46 21 38 -45 -51 -56 0
-14 31 32 16 33 40 46 -21 38 45 -51 0
-14 15 32 16 33 40 46 21 -38 -45 51 0
-14 15 32 39 16 33 46 21 -38 -45 56 0
-13 31 15 32 39 40 46 -21 38 45 -56 0
-13 15 32 39 16 40 46 21 -38 -45 56 0
-13 -14 39 17 41 -47 -19 36 43 49 0
-14 15 39 17 -34 -47 36 43 49 -58 0
-13 -14 -39 -34 -47 -19 -36 -43 49 58 0
-13 -14 -39 -34 -47 -19 36 -43 -49 58 0
-13 -14 -39 -34 -47 -19 -36 43 49 -58 0
-13 -14 -39 -34 -47 19 -36 43 -49 -58 0
-13 -14 -39 -34 -47 19 36 -43 -49 -58 0
-13 -14 -32 -41 -47 -19 -36 -43 49 58 0
-13 -14 -32 -41 -47 -19 -36 43 -49 58 0
-13 -14 -32 -41 -47 -19 36 -43 49 -58 0
-13 -14 -32 -41 -47 19 -36 43 -49 -58 0
-13 -14 -32 -41 -47 19 36 -43 -49 -58 0
-14 31 32 17 34 41 47 -19 36 43 -49 0
-14 15 32 17 34 41 47 19 -36 -43 49 0
-13 31 39 17 34 41 47 -19 36 43 -49 0
-14 31 15 32 39 34 47 -19 36 43 -58 0
-14 15 32 39 17 34 47 19 -36 -43 58 0
-13 31 15 32 39 41 47 -19 36 43 -58 0
-13 -14 32 17 34 -47 -20 37 44 50 0
-13 -14 -32 -41 -47 -20 -37 -44 50 59 0
-13 -14 -32 -41 -47 -20 -37 44 -50 59 0
-13 -14 39 17 41 -47 -21 38 45 51 0
-14 32 -39 -34 41 47 21 38 -45 51 0
-13 32 -39 -34 41 47 21 -38 45 60 0
-14 -32 39 17 41 -47 21 38 -51 60 0
-14 15 39 -34 41 -47 21 38 51 -60 0
-14 31 -32 34 -41 47 21 -45 51 60 0
-13 15 32 34 -41 -47 21 45 51 -60 0
-13 -14 -39 -34 -47 -21 -38 -45 51 60 0
-13 -14 -39 -34 -47 -21 38 -45 -51 60 0
-13 -14 -39 -34 -47 -21 -38 45 51 -60 0
-13 -14 -39 -34 -47 21 -38 45 -51 -60 0
-13 -14 -39 -34 -47 21 38 -45 -51 -60 0
-13 -14 -32 -41 -47 -21 -38 -45 51 60 0
-13 -14 -32 -41 -47 -21 -38 45 -51 60 0
-13 -14 -32 -41 -47 -21 38 -45 51 -60 0
-13 -14 -32 -41 -47 21 -38 45 -51 -60 0
-13 -14 -32 -41 -47 21 38 -45 -51 -60 0
-14 31 32 17 34 41 47 -21 38 45 -51 0
-14 15 32 17 34 41 47 21 -38 -45 51 0
-13 31 39 17 34 41 47 -21 38 45 -51 0
-13 15 39 17 34 41 47 21 -38 -45 51 0
-14 31 15 32 39 34 47 -21 38 45 -60 0
-13 -32 39 35 -42 48 19 -36 43 49 0
-14 -32 39 18 42 -48 19 36 -49 61 0
-14 15 39 -35 42 -48 19 36 49 -61 0
-13 15 32 35 -42 -48 19 43 49 -61 0
-14 15 39 18 -35 -48 36 43 49 -61 0
-13 -14 -39 -35 -48 -19 -36 -43 49 61 0
-13 -14 -39 -35 -48 -19 36 -43 -49 61 0
-13 -14 -39 -35 -48 -19 -36 43 49 -61 0
-13 -14 -39 -35 -48 19 -36 43 -49 -61 0
-13 -14 -39 -35 -48 19 36 -43 -49 -61 0
-13 -14 -32 -42 -48 -19 -36 -43 49 61 0
-13 -14 -32 -42 -48 -19 -36 43 -49 61 0
-13 -14 -32 -42 -48 -19 36 -43 49 -61 0
-13 -14 -32 -42 -48 19 -36 43 -49 -61 0
-13 -14 -32 -42 -48 19 36 -43 -49 -61 0
-14 31 32 18 35 42 48 -19 36 43 -49 0
-14 15 32 18 35 42 48 19 -36 -43 49 0
-13 15 39 18 35 42 48 19 -36 -43 49 0
-14 31 15 32 39 35 48 -19 36 43 -61 0
-14 15 32 39 18 35 48 19 -36 -43 61 0
-13 -14 -39 -35 -48 -20 -37 -44 50 62 0
-13 -14 -39 -35 -48 20 -37 44 -50 -62 0
-13 -14 -32 -42 -48 20 -37 44 -50 -62 0
-14 15 32 18 35 42 48 20 -37 -44 50 0
-13 15 39 18 35 42 48 20 -37 -44 50 0
-14 32 -39 -35 42 48 21 38 -45 51 0
-13 -14 15 32 35 -48 -21 38 45 63 0
-13 32 -39 -35 42 48 21 -38 45 63 0
-14 -32 39 18 42 -48 21 38 -51 63 0
-14 15 39 -35 42 -48 21 38 51 -63 0
-13 15 32 35 -42 -48 21 45 51 -63 0
-13 15 32 18 -42 -48 38 45 51 -63 0
-13 -14 -39 -35 -48 -21 -38 -45 51 63 0
-13 -14 -39 -35 -48 -21 38 -45 -51 63 0
-13 -14 -39 -35 -48 -21 -38 45 51 -63 0
-13 -14 -39 -35 -48 21 -38 45 -51 -63 0
-13 -14 -39 -35 -48 21 38 -45 -51 -63 0
-13 -14 -32 -42 -48 -21 -38 -45 51 63 0
-13 -14 -32 -42 -48 -21 -38 45 -51 63 0
-13 -14 -32 -42 -48 -21 38 -45 51 -63 0
-13 -14 -32 -42 -48 21 -38 45 -51 -63 0
-13 -14 -32 -42 -48 21 38 -45 -51 -63 0
-14 31 15 32 39 35 48 -21 38 45 -63 0
-13 31 15 32 39 42 48 -21 38 45 -63 0
-13 15 32 39 18 42 48 21 -38 -45 63 0
-13 -14 33 17 34 -52 -19 36 43 54 0
-13 -14 40 17 41 -52 -19 36 43 54 0
-13 -14 16 40 41 -52 -19 36 43 58 0
-13 33 -40 -34 41 52 19 -36 43 58 0
-13 31 16 33 -40 -41 19 -43 54 58 0
-13 33 -40 17 34 -52 19 43 -54 58 0
-13 -14 -40 -34 -52 -19 -36 -43 54 58 0
-13 -14 -40 -34 -52 -19 36 -43 -54 58 0
-13 -14 -40 -34 -52 -19 -36 43 54 -58 0
-13 -14 -40 -34 -52 19 -36 43 -54 -58 0
-13 -14 -40 -34 -52 19 36 -43 -54 -58 0
-13 -14 -33 -41 -52 -19 -36 -43 54 58 0
-13 -14 -33 -41 -52 -19 -36 43 -54 58 0
-13 -14 -33 -41 -52 -19 36 -43 54 -58 0
-13 -14 -33 -41 -52 19 -36 43 -54 -58 0
-13 -14 -33 -41 -52 19 36 -43 -54 -58 0
-14 31 33 17 34 41 52 -19 36 43 -54 0
-13 31 40 17 34 41 52 -19 36 43 -54 0
-14 31 16 33 40 34 52 -19 36 43 -58 0
-14 16 33 40 17 34 52 19 -36 -43 58 0
-13 31 16 33 40 41 52 -19 36 43 -58 0
-13 -33 40 34 -41 52 20 -37 44 55 0
-13 -14 -40 -34 -52 -20 37 -44 -55 59 0
-13 -14 -40 -34 -52 -20 -37 44 55 -59 0
-13 -14 -33 -41 -52 -20 -37 -44 55 59 0
-13 -14 -33 -41 -52 -20 -37 44 -55 59 0
-13 -14 -33 -41 -52 -20 37 -44 55 -59 0
-14 33 -40 -34 41 52 21 38 -45 56 0
-13 -14 16 33 34 -52 -21 38 45 60 0
-13 -14 16 40 41 -52 -21 38 45 60 0
-13 33 -40 -34 41 52 21 -38 45 60 0
-14 -33 40 17 41 -52 21 38 -56 60 0
-14 16 40 -34 41 -52 21 38 56 -60 0
-14 31 -33 34 -41 52 21 -45 56 60 0
-13 16 -40 17 34 -52 38 45 -56 60 0
-13 -14 -40 -34 -52 -21 -38 -45 56 60 0
-13 -14 -40 -34 -52 -21 38 -45 -56 60 0
-13 -14 -40 -34 -52 -21 -38 45 56 -60 0
-13 -14 -40 -34 -52 21 -38 45 -56 -60 0
-13 -14 -40 -34 -52 21 38 -45 -56 -60 0
-13 -14 -33 -41 -52 -21 -38 -45 56 60 0
-13 -14 -33 -41 -52 -21 -38 45 -56 60 0
-13 -14 -33 -41 -52 -21 38 -45 56 -60 0
-13 -14 -33 -41 -52 21 -38 45 -56 -60 0
-13 -14 -33 -41 -52 21 38 -45 -56 -60 0
-14 31 33 17 34 41 52 -21 38 45 -56 0
-14 16 33 17 34 41 52 21 -38 -45 56 0
-13 31 40 17 34 41 52 -21 38 45 -56 0
-14 31 16 33 40 34 52 -21 38 45 -60 0
-13 -14 33 18 35 -53 -19 36 43 54 0
-14 33 -40 -35 42 53 19 36 -43 54 0
-14 -33 40 18 42 -53 19 36 -54 61 0
-14 16 40 -35 42 -53 19 36 54 -61 0
-13 16 33 35 -42 -53 19 43 54 -61 0
-14 16 40 18 -35 -53 36 43 54 -61 0
-13 -14 -40 -35 -53 -19 -36 -43 54 61 0
-13 -14 -40 -35 -53 -19 36 -43 -54 61 0
-13 -14 -40 -35 -53 -19 -36 43 54 -61 0
-13 -14 -40 -35 -53 19 -36 43 -54 -61 0
-13 -14 -40 -35 -53 19 36 -43 -54 -61 0
-13 -14 -33 -42 -53 -19 -36 -43 54 61 0
-13 -14 -33 -42 -53 -19 -36 43 -54 61 0
-13 -14 -33 -42 -53 -19 36 -43 54 -61 0
-13 -14 -33 -42 -53 19 -36 43 -54 -61 0
-13 -14 -33 -42 -53 19 36 -43 -54 -61 0
-14 31 33 18 35 42 53 -19 36 43 -54 0
-14 16 33 18 35 42 53 19 -36 -43 54 0
-13 31 40 18 35 42 53 -19 36 43 -54 0
-13 16 40 18 35 42 53 19 -36 -43 54 0
-13 31 16 33 40 42 53 -19 36 43 -61 0
-13 16 33 40 18 42 53 19 -36 -43 61 0
-13 -14 33 18 35 -53 -20 37 44 55 0
-13 -14 40 18 42 -53 -20 37 44 55 0
-13 -14 -40 -35 -53 -20 -37 -44 55 62 0
-13 -14 -40 -35 -53 -20 37 -44 -55 62 0
-13 -14 -40 -35 -53 -20 -37 44 55 -62 0
-13 -14 -33 -42 -53 -20 -37 -44 55 62 0
-13 -14 -33 -42 -53 20 -37 44 -55 -62 0
-14 31 33 18 35 42 53 -20 37 44 -55 0
-13 16 40 18 35 42 53 20 -37 -44 55 0
-13 -14 40 18 42 -53 -21 38 45 56 0
-13 33 -40 -35 42 53 21 -38 45 63 0
-14 -33 40 18 42 -53 21 38 -56 63 0
-14 16 40 -35 42 -53 21 38 56 -63 0
-14 31 -33 35 -42 53 21 -45 56 63 0
-13 16 33 35 -42 -53 21 45 56 -63 0
-14 16 -33 18 42 -53 38 45 -56 63 0
-13 -14 -40 -35 -53 -21 -38 -45 56 63 0
-13 -14 -40 -35 -53 -21 38 -45 -56 63 0
-13 -14 -40 -35 -53 -21 -38 45 56 -63 0
-13 -14 -40 -35 -53 21 -38 45 -56 -63 0
-13 -14 -40 -35 -53 21 38 -45 -56 -63 0
-13 -14 -33 -42 -53 -21 -38 -45 56 63 0
-13 -14 -33 -42 -53 -21 -38 45 -56 63 0
-13 -14 -33 -42 -53 -21 38 -45 56 -63 0
-13 -14 -33 -42 -53 21 -38 45 -56 -63 0
-13 -14 -33 -42 -53 21 38 -45 -56 -63 0
-14 31 33 18 35 42 53 -21 38 45 -56 0
-14 16 33 18 35 42 53 21 -38 -45 56 0
-13 31 40 18 35 42 53 -21 38 45 -56 0
-13 16 40 18 35 42 53 21 -38 -45 56 0
-14 31 16 33 40 35 53 -21 38 45 -63 0
-13 31 16 33 40 42 53 -21 38 45 -63 0
-13 16 33 40 18 42 53 21 -38 -45 63 0
-13 -14 33 -40 36 -43 -54 -21 -38 -45 -65 0
-13 -14 -33 -40 20 -37 -55 21 -45 -56 -66 0
-13 -14 34 18 35 -57 -19 36 43 58 0
-13 -14 17 34 35 -57 -19 36 43 61 0
-13 -14 17 41 42 -57 -19 36 43 61 0
-13 -14 -41 -35 -57 -19 -36 -43 58 61 0
-13 -14 -41 -35 -57 -19 36 -43 -58 61 0
-13 -14 -41 -35 -57 -19 -36 43 58 -61 0
-13 -14 -41 -35 -57 19 -36 43 -58 -61 0
-13 -14 -41 -35 -57 19 36 -43 -58 -61 0
-13 -14 -34 -42 -57 -19 -36 -43 58 61 0
-13 -14 -34 -42 -57 -19 -36 43 -58 61 0
-13 -14 -34 -42 -57 -19 36 -43 58 -61 0
-13 -14 -34 -42 -57 19 -36 43 -58 -61 0
-14 31 34 18 35 42 57 -19 36 43 -58 0
-14 17 34 18 35 42 57 19 -36 -43 58 0
-13 31 41 18 35 42 57 -19 36 43 -58 0
-13 17 41 18 35 42 57 19 -36 -43 58 0
-13 31 17 34 41 42 57 -19 36 43 -61 0
-13 17 34 41 18 42 57 19 -36 -43 61 0
-13 -14 41 18 42 -57 -20 37 44 59 0
-13 17 34 41 18 42 57 20 -37 -44 62 0
-13 -14 34 18 35 -57 -21 38 45 60 0
-13 -14 41 18 42 -57 -21 38 45 60 0
-13 -34 41 35 -42 57 21 -38 45 60 0
-13 -14 17 41 42 -57 -21 38 45 63 0
-13 34 -41 18 35 -57 21 45 -60 63 0
-13 17 34 18 -42 -57 38 45 60 -63 0
-13 -14 -41 -35 -57 -21 -38 -45 60 63 0
-13 -14 -41 -35 -57 -21 38 -45 -60 63 0
-13 -14 -41 -35 -57 -21 -38 45 60 -63 0
-13 -14 -41 -35 -57 21 -38 45 -60 -63 0
-13 -14 -41 -35 -57 21 38 -45 -60 -63 0
-13 -14 -34 -42 -57 -21 -38 -45 60 63 0
-13 -14 -34 -42 -57 -21 -38 45 -60 63 0
-13 -14 -34 -42 -57 -21 38 -45 60 -63 0
-13 -14 -34 -42 -57 21 -38 45 -60 -63 0
-13 -14 -34 -42 -57 21 38 -45 -60 -63 0
-14 31 34 18 35 42 57 -21 38 45 -60 0
-14 17 34 18 35 42 57 21 -38 -45 60 0
-13 17 41 18 35 42 57 21 -38 -45 60 0
-14 31 17 34 41 35 57 -21 38 45 -63 0
-13 -14 -34 41 -37 44 -59 -21 -38 -45 -66 0
-13 15 -33 17 34 -47 19 -36 49 54 0
-13 -32 16 33 17 -52 19 -36 49 58 0
-13 15 32 -33 17 -47 19 -36 54 58 0
-13 15 32 34 -47 -52 19 49 54 -58 0
-13 16 33 34 -47 -52 19 49 54 -58 0
-13 15 16 33 -46 -47 36 -49 54 58 0
-13 15 -46 17 34 -47 36 -49 54 58 0
-13 15 32 16 -46 -52 36 49 -54 58 0
-13 15 32 17 -47 -52 36 49 54 -58 0
15 32 -33 17 34 47 52 -19 36 49 -54 0
15 16 -33 17 34 47 52 19 -36 -49 54 0
-32 16 33 17 34 47 52 -19 36 -49 54 0
15 -32 16 33 46 17 52 19 -36 49 -58 0
15 16 33 46 17 -34 52 19 -36 -49 58 0
-13 16 33 46 17 47 52 19 -36 -49 58 0
15 32 16 -33 46 17 47 19 -36 54 -58 0
15 32 16 33 46 -34 47 -19 36 54 -58 0
15 32 16 46 17 -34 47 19 -36 -54 58 0
-13 15 32 -33 17 -47 20 -37 55 59 0
15 16 -33 17 34 47 52 20 -37 -50 55 0
15 32 16 -33 46 17 47 20 -37 55 -59 0
-13 15 -33 17 34 -47 21 -38 51 56 0
-13 -32 16 17 34 -52 21 -38 51 56 0
-13 33 -46 -34 47 52 21 -38 51 60 0
-13 16 -46 17 34 -52 38 51 -56 60 0
-13 16 33 17 -47 -52 38 51 56 -60 0
15 -32 16 17 34 47 52 21 -38 51 -56 0
15 32 -33 17 34 47 52 -21 38 51 -56 0
15 32 16 33 46 -34 52 -21 38 51 -60 0
15 16 33 46 17 -34 52 21 -38 -51 60 0
-13 15 -33 18 35 -48 19 -36 49 54 0
-13 15 16 33 -46 -35 19 -36 49 61 0
-13 -32 16 33 18 -53 19 -36 49 61 0
-13 15 32 16 -46 -53 36 49 -54 61 0
-13 16 -46 18 35 -53 36 49 -54 61 0
-13 15 32 18 -48 -53 36 49 54 -61 0
-13 16 33 18 -48 -53 36 49 54 -61 0
15 32 -33 18 35 48 53 -19 36 49 -54 0
-32 16 33 18 35 48 53 -19 36 -49 54 0
15 -32 16 33 46 18 53 19 -36 49 -61 0
15 16 33 46 18 -35 53 19 -36 -49 61 0
-32 16 33 46 18 35 53 -19 36 -49 61 0
15 32 16 -33 46 18 48 19 -36 54 -61 0
15 32 16 33 46 -35 48 -19 36 54 -61 0
15 32 16 46 18 -35 48 19 -36 -54 61 0
15 32 -33 46 18 35 48 -19 36 -54 61 0
-13 -32 16 18 35 -53 20 -37 50 55 0
-13 15 32 16 -46 -35 20 -37 55 62 0
-13 15 32 33 -46 -53 20 50 -55 62 0
-13 33 -46 18 35 -53 20 50 -55 62 0
-13 15 -33 18 35 -48 21 -38 51 56 0
-13 -32 16 18 35 -53 21 -38 51 56 0
-13 -32 33 46 48 -53 21 -38 51 63 0
-13 15 32 16 -46 -35 21 -38 56 63 0
-13 15 -46 18 35 -48 38 -51 56 63 0
-13 16 -46 18 35 -53 38 51 -56 63 0
15 -32 16 18 35 48 53 21 -38 51 -56 0
15 16 -33 18 35 48 53 21 -38 -51 56 0
15 -32 16 33 46 18 53 21 -38 51 -63 0
15 32 16 33 46 -35 48 -21 38 56 -63 0
15 32 16 46 18 -35 48 21 -38 -56 63 0
-13 15 -34 18 35 -48 19 -36 49 58 0
-13 -32 17 18 35 -57 19 -36 49 58 0
-13 15 32 -34 18 -48 19 -36 58 61 0
-13 32 -34 47 -48 57 19 -36 58 61 0
-13 17 34 35 -48 -57 19 49 58 -61 0
-13 15 -47 18 35 -48 36 -49 58 61 0
15 17 -34 18 35 48 57 19 -36 -49 58 0
15 -32 17 34 47 18 57 19 -36 49 -61 0
15 32 17 34 47 -35 57 -19 36 49 -61 0
-32 17 34 47 18 35 57 -19 36 -49 61 0
15 32 17 -34 47 18 48 19 -36 58 -61 0
15 32 17 34 47 -35 48 -19 36 58 -61 0
15 32 -34 47 18 35 48 -19 36 -58 61 0
15 32 -34 47 18 35 48 -20 37 -59 62 0
-13 -32 17 18 35 -57 21 -38 51 60 0
-13 15 32 17 -47 -35 21 -38 60 63 0
-13 15 32 17 -47 -57 38 51 -60 63 0
-13 17 34 18 -48 -57 38 51 60 -63 0
15 -32 17 18 35 48 57 21 -38 51 -60 0
15 32 -34 18 35 48 57 -21 38 51 -60 0
-32 17 34 18 35 48 57 -21 38 -51 60 0
15 -32 17 34 47 18 57 21 -38 51 -63 0
15 17 34 47 18 -35 57 21 -38 -51 63 0
-32 17 34 47 18 35 57 -21 38 -51 63 0
15 32 17 47 18 -35 48 21 -38 -60 63 0
-13 15 -34 -47 -19 -36 -58 21 -51 -60 -65 0
-13 16 -34 18 35 -53 19 -36 54 58 0
-13 16 17 34 -52 -35 19 -36 54 61 0
-13 16 17 34 -52 -53 36 -54 58 61 0
-13 16 33 18 -53 -57 36 54 58 -61 0
16 -33 17 18 35 53 57 19 -36 54 -58 0
16 17 -34 18 35 53 57 19 -36 -54 58 0
-33 17 34 18 35 53 57 -19 36 -54 58 0
16 -33 17 34 52 18 57 19 -36 54 -61 0
16 33 17 34 52 -35 57 -19 36 54 -61 0
16 17 34 52 18 -35 57 19 -36 -54 61 0
16 33 17 -34 52 18 53 19 -36 58 -61 0
16 33 17 34 52 -35 53 -19 36 58 -61 0
16 33 17 52 18 -35 53 19 -36 -58 61 0
16 33 -34 52 18 35 53 -19 36 -58 61 0
16 -33 17 18 35 53 57 20 -37 55 -59 0
-13 -33 17 18 35 -57 21 -38 56 60 0
-13 -33 17 34 18 -57 21 -38 56 63 0
-13 16 33 17 -52 -35 21 -38 60 63 0
-13 16 33 -34 18 -53 21 -38 60 63 0
-13 16 33 34 -52 -57 21 56 -60 63 0
-13 34 -52 18 35 -57 21 56 -60 63 0
-13 16 17 34 -52 -53 38 -56 60 63 0
-13 16 33 17 -52 -57 38 56 -60 63 0
-13 17 -52 18 35 -57 38 56 -60 63 0
-13 16 33 18 -53 -57 38 56 60 -63 0
16 33 -34 18 35 53 57 -21 38 56 -60 0
16 17 -34 18 35 53 57 21 -38 -56 60 0
16 33 17 34 52 -35 57 -21 38 56 -63 0
16 17 34 52 18 -35 57 21 -38 -56 63 0
-33 17 34 52 18 35 57 -21 38 -56 63 0
16 33 17 -34 52 18 53 21 -38 60 -63 0
16 33 17 34 52 -35 53 -21 38 60 -63 0
16 33 17 52 18 -35 53 21 -38 -60 63 0
-13 -33 17 -52 -20 -37 -55 21 -56 -60 -66 0
-14 -39 16 17 41 -52 19 -43 49 54 0
-14 15 16 40 -46 -41 19 -43 49 58 0
-14 -39 16 40 17 -52 19 -43 49 58 0
-14 15 39 16 -46 -41 19 -43 54 58 0
-14 16 40 17 -47 -52 43 49 54 -58 0
15 39 -40 17 41 47 52 -19 43 49 -54 0
-39 16 40 17 41 47 52 -19 43 -49 54 0
15 39 16 40 46 -41 52 -19 43 49 -58 0
15 16 40 46 17 -41 52 19 -43 -49 58 0
15 39 16 40 46 -41 47 -19 43 54 -58 0
15 39 -40 46 17 41 47 -19 43 -54 58 0
15 16 40 46 17 -41 52 20 -44 -50 59 0
-14 15 -40 17 41 -47 21 -45 51 56 0
-14 -39 16 17 41 -52 21 -45 51 56 0
-14 15 39 16 -46 -41 21 -45 56 60 0
-14 15 -46 17 41 -47 45 -51 56 60 0
-14 15 39 16 -46 -52 45 51 -56 60 0
15 -39 16 40 46 17 52 21 -45 51 -60 0
15 16 40 46 17 -41 52 21 -45 -51 60 0
-39 16 40 46 17 41 52 -21 45 -51 60 0
15 39 16 40 46 -41 47 -21 45 56 -60 0
15 39 16 46 17 -41 47 21 -45 -56 60 0
15 39 -40 46 17 41 47 -21 45 -56 60 0
-14 15 -40 18 42 -48 19 -43 49 54 0
-14 15 16 40 -46 -42 19 -43 49 61 0
-14 -39 16 40 18 -53 19 -43 49 61 0
-14 15 39 16 -46 -42 19 -43 54 61 0
-14 15 39 42 -48 -53 19 49 54 -61 0
-14 15 39 18 -48 -53 43 49 54 -61 0
15 -39 16 18 42 48 53 19 -43 49 -54 0
-39 16 40 18 42 48 53 -19 43 -49 54 0
15 -39 16 40 46 18 53 19 -43 49 -61 0
15 16 40 46 18 -42 53 19 -43 -49 61 0
-39 16 40 46 18 42 53 -19 43 -49 61 0
15 39 16 -40 46 18 48 19 -43 54 -61 0
15 39 16 40 46 -42 48 -19 43 54 -61 0
15 39 16 46 18 -42 48 19 -43 -54 61 0
15 39 -40 46 18 42 48 -19 43 -54 61 0
-14 15 -40 18 42 -48 20 -44 50 55 0
-14 15 39 16 -46 -42 20 -44 55 62 0
-14 15 -46 18 42 -48 44 -50 55 62 0
-39 16 40 46 18 42 53 -20 44 -50 62 0
15 39 16 40 46 -42 48 -20 44 55 -62 0
-14 15 -40 18 42 -48 21 -45 51 56 0
-14 15 39 -40 18 -48 21 -45 56 63 0
-14 16 40 42 -48 -53 21 51 56 -63 0
-14 15 16 40 -46 -48 45 -51 56 63 0
-14 15 -46 18 42 -48 45 -51 56 63 0
-14 15 39 16 -46 -53 45 51 -56 63 0
-14 16 -46 18 42 -53 45 51 -56 63 0
15 -39 16 18 42 48 53 21 -45 51 -56 0
15 39 -40 18 42 48 53 -21 45 51 -56 0
15 16 -40 18 42 48 53 21 -45 -51 56 0
-39 16 40 18 42 48 53 -21 45 -51 56 0
15 -39 16 40 46 18 53 21 -45 51 -63 0
-39 16 40 46 18 42 53 -21 45 -51 63 0
15 39 16 -40 46 18 48 21 -45 56 -63 0
15 39 16 46 18 -42 48 21 -45 -56 63 0
15 39 -40 46 18 42 48 -21 45 -56 63 0
-14 15 -41 18 42 -48 19 -43 49 58 0
-14 -39 17 41 18 -57 19 -43 49 61 0
-14 15 39 -41 18 -48 19 -43 58 61 0
15 39 -41 18 42 48 57 -19 43 49 -58 0
15 17 -41 18 42 48 57 19 -43 -49 58 0
-39 17 41 18 42 48 57 -19 43 -49 58 0
15 -39 17 41 47 18 57 19 -43 49 -61 0
15 39 17 41 47 -42 57 -19 43 49 -61 0
-39 17 41 47 18 42 57 -19 43 -49 61 0
15 39 17 -41 47 18 48 19 -43 58 -61 0
-14 15 -41 18 42 -48 21 -45 51 60 0
-14 -39 17 41 18 -57 21 -45 51 63 0
-14 15 17 41 -47 -48 45 -51 60 63 0
-14 15 -47 18 42 -48 45 -51 60 63 0
-14 15 39 17 -47 -57 45 51 -60 63 0
-14 15 39 18 -48 -57 45 51 60 -63 0
15 39 -41 18 42 48 57 -21 45 51 -60 0
15 39 17 41 47 -42 57 -21 45 51 -63 0
15 17 41 47 18 -42 57 21 -45 -51 63 0
15 39 -41 47 18 42 48 -21 45 -60 63 0
-14 15 -41 -47 -20 -44 -59 21 -51 -60 -66 0
-14 16 17 41 -52 -42 19 -43 54 61 0
-14 -40 17 41 18 -57 19 -43 54 61 0
-14 16 40 -41 18 -53 19 -43 58 61 0
-14 40 17 41 -52 -53 19 -54 58 61 0
-14 17 41 42 -53 -57 19 54 58 -61 0
-14 16 17 41 -52 -53 43 -54 58 61 0
-14 16 40 18 -53 -57 43 54 58 -61 0
16 -40 17 18 42 53 57 19 -43 54 -58 0
16 40 -41 18 42 53 57 -19 43 54 -58 0
16 17 -41 18 42 53 57 19 -43 -54 58 0
16 -40 17 41 52 18 57 19 -43 54 -61 0
16 40 17 41 52 -42 57 -19 43 54 -61 0
-40 17 41 52 18 42 57 -19 43 -54 61 0
16 40 17 -41 52 18 53 19 -43 58 -61 0
16 40 17 41 52 -42 53 -19 43 58 -61 0
16 40 -41 52 18 42 53 -19 43 -58 61 0
-14 17 41 18 -53 -57 44 55 59 -62 0
16 40 -41 18 42 53 57 -20 44 55 -59 0
-14 16 -41 18 42 -53 21 -45 56 60 0
-14 16 17 41 -52 -42 21 -45 56 63 0
-14 -40 17 41 18 -57 21 -45 56 63 0
-14 16 40 -41 18 -53 21 -45 60 63 0
-14 16 17 41 -52 -53 45 -56 60 63 0
-14 16 40 17 -52 -57 45 56 -60 63 0
-14 16 40 18 -53 -57 45 56 60 -63 0
-14 17 41 18 -53 -57 45 56 60 -63 0
16 40 -41 18 42 53 57 -21 45 56 -60 0
16 17 -41 18 42 53 57 21 -45 -56 60 0
-40 17 41 18 42 53 57 -21 45 -56 60 0
16 -40 17 41 52 18 57 21 -45 56 -63 0
16 40 17 41 52 -42 57 -21 45 56 -63 0
16 17 41 52 18 -42 57 21 -45 -56 63 0
16 40 17 -41 52 18 53 21 -45 60 -63 0
16 40 17 41 52 -42 53 -21 45 60 -63 0
16 40 -41 52 18 42 53 -21 45 -60 63 0
-14 16 -42 -53 -19 -43 54 -45 -56 -63 -65 0
15 16 17 47 52 -53 57 19 -49 54 -61 0
15 16 46 17 -52 18 48 49 54 -58 -61 0
15 16 46 17 52 18 -48 49 54 -58 -61 0
15 16 17 47 52 18 -48 49 -54 58 -61 0
15 16 46 17 -47 18 53 49 54 -58 -61 0
15 16 46 17 47 18 -53 49 54 -58 -61 0
15 16 17 -47 52 18 53 -49 54 58 -61 0
15 16 17 -47 18 48 53 49 -54 -58 61 0
15 16 17 52 18 -48 53 -49 54 -58 61 0
15 16 -46 17 47 18 57 49 -54 58 -61 0
15 16 46 17 47 18 -57 49 -54 58 -61 0
15 16 -46 17 52 18 57 -49 54 58 -61 0
15 16 46 17 52 18 -57 -49 54 58 -61 0
15 16 -46 17 18 48 57 49 -54 -58 61 0
15 16 46 17 18 48 -57 49 -54 -58 61 0
15 16 17 -52 18 48 57 -49 -54 58 61 0
15 16 17 52 18 -48 57 -49 -54 58 61 0
15 16 -46 17 18 53 57 -49 54 -58 61 0
15 16 46 17 18 53 -57 -49 54 -58 61 0
15 16 17 -47 18 53 57 -49 -54 58 61 0
15 16 17 47 18 -53 57 -49 -54 58 61 0
15 16 17 47 52 18 -53 -50 55 59 -62 0
15 16 46 17 52 18 -57 -50 55 59 -62 0
15 16 46 17 -52 18 48 51 56 -60 -63 0
15 16 46 17 52 18 -48 51 56 -60 -63 0
15 16 17 47 -52 18 48 51 -56 60 -63 0
15 16 17 47 52 18 -48 51 -56 60 -63 0
15 16 46 17 47 18 -53 51 56 -60 -63 0
15 16 17 -47 52 18 53 -51 56 60 -63 0
15 16 17 47 52 18 -53 -51 56 60 -63 0
15 16 17 -47 18 48 53 51 -56 -60 63 0
15 16 17 47 18 48 -53 51 -56 -60 63 0
15 16 17 -52 18 48 53 -51 56 -60 63 0
15 16 17 52 18 -48 53 -51 56 -60 63 0
15 16 -46 17 47 18 57 51 -56 60 -63 0
15 16 46 17 47 18 -57 51 -56 60 -63 0
15 16 -46 17 52 18 57 -51 56 60 -63 0
15 16 46 17 52 18 -57 -51 56 60 -63 0
15 16 -46 17 18 48 57 51 -56 -60 63 0
15 16 46 17 18 48 -57 51 -56 -60 63 0
15 16 17 -52 18 48 57 -51 -56 60 63 0
15 16 -46 17 18 53 57 -51 56 -60 63 0
15 16 46 17 18 53 -57 -51 56 -60 63 0
22 -32 -39 -25 33 46 28 36 43 -49 0
31 -32 39 -25 33 -40 28 43 49 -54 0
22 -24 32 25 -33 -40 36 43 49 -54 0
23 -24 39 25 -33 -40 36 43 49 -54 0
22 23 31 32 39 -25 40 28 36 -49 -54 0
22 23 31 -24 39 33 40 28 36 -49 -54 0
22 23 31 24 39 -33 40 28 36 -49 -54 0
22 23 31 24 39 40 -46 28 -36 49 -54 0
22 23 31 32 39 40 -46 -28 36 49 -54 0
23 31 -32 39 25 40 46 -28 -36 49 54 0
22 23 31 39 33 40 -46 -28 36 -49 54 0
22 23 31 32 -39 25 33 28 43 -49 -54 0
22 23 31 32 39 -25 33 28 43 -49 -54 0
22 23 31 24 32 33 -40 28 43 -49 -54 0
22 31 -24 32 39 33 40 -28 43 49 -54 0
22 31 32 39 -25 33 40 -28 43 -49 54 0
22 23 31 24 32 33 -46 28 -43 49 -54 0
22 23 31 32 39 33 -46 -28 43 49 -54 0
22 31 32 -39 25 33 46 -28 -43 49 54 0
22 31 -24 32 33 40 46 -28 -43 49 54 0
22 23 31 24 -39 25 33 36 43 -49 -54 0
22 23 31 24 39 25 -33 36 43 -49 -54 0
22 23 31 24 -32 25 40 36 43 -49 -54 0
22 23 31 24 32 25 -46 36 -43 49 -54 0
22 23 31 24 39 25 -46 -36 43 49 -54 0
22 23 31 24 25 33 -46 36 -43 -49 54 0
22 23 24 -39 25 33 46 -36 -43 49 54 0
22 23 24 39 25 -33 46 -36 -43 49 54 0
22 23 24 32 25 -40 46 -36 -43 49 54 0
22 -24 32 -39 25 -33 29 44 -50 55 0
23 31 -32 39 25 40 46 -29 -37 50 55 0
22 23 31 32 39 33 -46 -29 44 50 -55 0
22 23 31 24 32 25 -40 37 44 -50 -55 0
31 -32 39 -25 -40 46 30 38 45 -56 0
31 -24 -32 39 33 -40 30 38 -51 56 0
23 24 -39 -25 -33 40 30 38 51 -56 0
22 -24 32 -39 25 -33 30 45 -51 56 0
22 23 31 32 39 -25 40 30 38 -51 -56 0
22 23 31 24 39 40 -46 30 -38 51 -56 0
22 23 31 39 25 40 -46 30 -38 -51 56 0
23 31 -32 39 25 40 46 -30 -38 51 56 0
22 23 31 32 39 -25 33 30 45 -51 -56 0
22 23 31 -24 32 33 40 30 45 -51 -56 0
22 23 31 24 32 33 -46 30 -45 51 -56 0
22 23 31 32 39 33 -46 -30 45 51 -56 0
22 23 31 32 33 40 -46 -30 45 -51 56 0
22 31 -24 32 33 40 46 -30 -45 51 56 0
22 31 24 32 33 -40 46 -30 -45 51 56 0
22 23 24 39 25 -33 46 -38 -45 51 56 0
23 24 -39 -26 -34 41 28 36 49 -58 0
22 -24 32 -39 26 -34 28 43 -49 58 0
31 -32 39 -26 34 -41 28 43 49 -58 0
22 24 -32 -39 -26 34 36 43 -49 58 0
22 23 31 32 39 -26 41 28 36 -49 -58 0
22 23 31 24 39 -34 41 28 36 -49 -58 0
23 31 32 39 -26 41 47 -28 -36 49 58 0
22 23 31 32 -39 26 34 28 43 -49 -58 0
22 23 31 24 32 34 -47 28 -43 49 -58 0
22 23 31 32 39 34 -47 -28 43 49 -58 0
22 23 31 24 -39 26 34 36 43 -49 -58 0
22 23 31 24 39 26 -47 -36 43 49 -58 0
22 23 31 24 26 41 -47 -36 43 -49 58 0
23 -24 39 26 -34 -41 37 44 50 -59 0
31 -24 32 -39 -34 41 30 45 -51 60 0
22 24 -32 -26 34 -41 30 45 51 -60 0
22 24 -32 -39 -26 34 38 45 -51 60 0
22 23 31 -32 39 26 41 30 38 -51 -60 0
22 23 31 -24 39 34 41 30 38 -51 -60 0
22 23 31 24 39 -34 41 30 38 -51 -60 0
22 23 31 32 39 41 -47 -30 38 51 -60 0
23 31 32 39 -26 41 47 -30 -38 51 60 0
23 31 24 39 -34 41 47 -30 -38 51 60 0
22 23 31 32 -39 26 34 30 45 -51 -60 0
22 23 31 24 32 34 -41 30 45 -51 -60 0
22 23 31 24 32 34 -47 30 -45 51 -60 0
22 23 31 32 39 34 -47 -30 45 51 -60 0
22 31 32 -39 26 34 47 -30 -45 51 60 0
22 23 31 32 34 41 -47 -30 45 -51 60 0
22 31 -24 32 34 41 47 -30 -45 51 60 0
22 31 24 32 34 -41 47 -30 -45 51 60 0
22 23 31 24 -39 26 34 38 45 -51 -60 0
22 23 31 24 -32 26 41 38 45 -51 -60 0
22 23 31 24 39 26 -47 -38 45 51 -60 0
22 23 24 32 26 -41 47 -38 -45 51 60 0
31 -24 -32 39 35 -42 28 36 -49 61 0
22 24 -32 -27 35 -42 28 43 49 -61 0
22 23 24 32 39 -42 48 28 -36 43 -61 0
22 23 31 -24 39 35 42 28 36 -49 -61 0
22 23 31 24 39 -35 42 28 36 -49 -61 0
22 23 31 32 39 42 -48 -28 36 49 -61 0
22 23 31 39 35 42 -48 -28 36 -49 61 0
22 23 31 24 32 35 -48 28 -43 49 -61 0
22 23 31 32 39 35 -48 -28 43 49 -61 0
22 31 32 39 -27 35 48 -28 -43 49 61 0
22 23 31 32 35 42 -48 -28 43 -49 61 0
22 31 24 32 35 -42 48 -28 -43 49 61 0
22 23 31 24 -39 27 35 36 43 -49 -61 0
22 23 31 24 27 35 -48 36 -43 -49 61 0
22 23 24 39 27 -35 48 -36 -43 49 61 0
22 23 31 24 27 42 -48 -36 43 -49 61 0
23 31 32 39 -27 42 48 -29 -37 50 62 0
23 31 -24 39 35 42 48 -29 -37 50 62 0
22 23 31 -24 32 35 42 29 44 -50 -62 0
22 31 -24 32 35 42 48 -29 -44 50 62 0
31 32 -39 -27 -35 48 30 38 45 -63 0
22 23 31 -32 39 27 42 30 38 -51 -63 0
22 23 31 32 39 -27 42 30 38 -51 -63 0
22 23 31 -24 39 35 42 30 38 -51 -63 0
22 23 31 24 39 -35 42 30 38 -51 -63 0
22 23 31 24 39 42 -48 30 -38 51 -63 0
22 23 31 39 27 42 -48 30 -38 -51 63 0
23 31 24 39 -35 42 48 -30 -38 51 63 0
22 23 31 32 -39 27 35 30 45 -51 -63 0
22 23 31 32 39 -27 35 30 45 -51 -63 0
22 23 31 24 32 35 -42 30 45 -51 -63 0
22 23 31 24 32 35 -48 30 -45 51 -63 0
22 23 31 32 39 35 -48 -30 45 51 -63 0
22 23 31 32 27 35 -48 30 -45 -51 63 0
22 31 32 -39 27 35 48 -30 -45 51 63 0
22 23 31 32 35 42 -48 -30 45 -51 63 0
22 23 31 24 -39 27 35 38 45 -51 -63 0
22 23 31 24 39 27 -35 38 45 -51 -63 0
22 23 31 24 -32 27 42 38 45 -51 -63 0
22 23 31 24 32 27 -42 38 45 -51 -63 0
22 23 31 24 32 27 -48 38 -45 51 -63 0
22 23 31 24 39 27 -48 -38 45 51 -63 0
22 23 31 24 27 35 -48 38 -45 -51 63 0
22 23 24 -39 27 35 48 -38 -45 51 63 0
22 23 24 39 27 -35 48 -38 -45 51 63 0
31 -25 -33 40 34 -41 28 36 -54 58 0
31 33 -40 -26 -34 41 28 36 54 -58 0
22 -25 33 -40 26 -34 28 43 -54 58 0
22 25 -33 -40 -26 34 36 43 -54 58 0
23 25 -33 -40 -26 41 36 43 -54 58 0
22 -25 33 26 -34 -41 36 43 54 -58 0
22 23 31 25 40 -34 41 28 36 -54 -58 0
22 23 31 25 40 41 -52 28 -36 54 -58 0
23 31 33 40 -26 41 52 -28 -36 54 58 0
22 23 31 40 34 41 -52 -28 36 -54 58 0
23 31 -25 40 34 41 52 -28 -36 54 58 0
23 31 25 40 -34 41 52 -28 -36 54 58 0
22 23 31 -25 33 34 41 28 43 -54 -58 0
22 31 25 33 26 34 -41 28 -43 -54 58 0
22 23 31 33 40 34 -52 -28 43 54 -58 0
22 23 31 33 26 34 -52 28 -43 -54 58 0
22 31 33 40 -26 34 52 -28 -43 54 58 0
22 23 31 25 -40 26 34 36 43 -54 -58 0
22 23 31 25 33 26 -41 36 43 -54 -58 0
22 23 31 25 33 26 -52 36 -43 54 -58 0
22 23 25 -40 26 34 52 -36 -43 54 58 0
22 23 31 25 26 41 -52 -36 43 -54 58 0
31 -25 -33 40 34 -41 29 37 -55 59 0
22 -25 33 -40 26 -34 29 44 -55 59 0
22 23 31 33 40 -26 34 29 44 -55 -59 0
22 23 31 25 40 26 -34 37 44 -55 -59 0
22 23 31 25 33 26 -41 37 44 -55 -59 0
22 23 31 25 26 34 -52 37 -44 -55 59 0
22 23 25 40 26 -34 52 -37 -44 55 59 0
22 23 25 -33 26 41 52 -37 -44 55 59 0
22 23 25 33 26 -41 52 -37 -44 55 59 0
31 -25 -33 40 34 -41 30 38 -56 60 0
31 33 -40 -26 -34 41 30 38 56 -60 0
31 -25 33 -40 -34 41 30 45 -56 60 0
22 25 -33 -26 34 -41 30 45 56 -60 0
31 -33 40 -26 34 -41 30 45 56 -60 0
23 25 -33 -40 -26 41 38 45 -56 60 0
23 -25 40 26 -34 -41 38 45 56 -60 0
22 23 31 33 40 -26 41 30 38 -56 -60 0
22 23 31 -25 40 34 41 30 38 -56 -60 0
23 31 33 40 -26 41 52 -30 -38 56 60 0
22 23 31 40 34 41 -52 -30 38 -56 60 0
23 31 -25 40 34 41 52 -30 -38 56 60 0
22 23 31 33 -40 26 34 30 45 -56 -60 0
22 23 31 33 40 -26 34 30 45 -56 -60 0
22 23 31 -25 33 34 41 30 45 -56 -60 0
22 23 31 25 33 34 -41 30 45 -56 -60 0
22 23 31 25 33 34 -52 30 -45 56 -60 0
22 23 31 33 40 34 -52 -30 45 56 -60 0
22 23 31 33 26 34 -52 30 -45 -56 60 0
22 31 33 -40 26 34 52 -30 -45 56 60 0
22 31 33 40 -26 34 52 -30 -45 56 60 0
22 31 25 33 34 -41 52 -30 -45 56 60 0
22 23 31 25 -40 26 34 38 45 -56 -60 0
22 23 31 25 -33 26 41 38 45 -56 -60 0
22 23 31 25 33 26 -52 38 -45 56 -60 0
22 23 31 25 26 34 -52 38 -45 -56 60 0
22 23 25 -40 26 34 52 -38 -45 56 60 0
22 23 31 25 26 41 -52 -38 45 -56 60 0
31 -25 -33 40 35 -42 28 36 -54 61 0
23 25 -40 -27 -35 42 28 36 54 -61 0
23 25 -33 -40 -27 42 36 43 -54 61 0
22 -25 33 27 -35 -42 36 43 54 -61 0
23 -25 40 27 -35 -42 36 43 54 -61 0
22 23 31 -33 40 27 42 28 36 -54 -61 0
22 23 31 -25 40 35 42 28 36 -54 -61 0
22 23 31 25 40 -35 42 28 36 -54 -61 0
22 23 31 33 40 42 -53 -28 36 54 -61 0
23 31 -33 40 27 42 53 -28 -36 54 61 0
22 23 31 40 35 42 -53 -28 36 -54 61 0
23 31 -25 40 35 42 53 -28 -36 54 61 0
23 31 25 40 -35 42 53 -28 -36 54 61 0
22 23 31 33 40 -27 35 28 43 -54 -61 0
22 23 31 -25 33 35 42 28 43 -54 -61 0
22 23 31 25 33 35 -53 28 -43 54 -61 0
22 23 31 33 40 35 -53 -28 43 54 -61 0
22 23 31 33 27 35 -53 28 -43 -54 61 0
22 23 31 25 40 27 -35 36 43 -54 -61 0
22 23 31 25 -33 27 42 36 43 -54 -61 0
22 23 31 25 33 27 -42 36 43 -54 -61 0
22 23 31 25 33 27 -53 36 -43 54 -61 0
22 23 31 25 40 27 -53 -36 43 54 -61 0
22 23 25 40 27 -35 53 -36 -43 54 61 0
22 23 31 25 27 42 -53 -36 43 -54 61 0
22 23 25 -33 27 42 53 -36 -43 54 61 0
23 31 -25 40 35 42 53 -29 -37 55 62 0
22 23 31 25 33 35 -53 29 -44 55 -62 0
22 23 31 33 35 42 -53 -29 44 -55 62 0
22 23 31 25 -33 27 42 37 44 -55 -62 0
31 -25 -33 35 -42 53 30 38 45 -56 0
31 -25 -33 40 35 -42 30 38 -56 63 0
23 25 -40 -27 -35 42 30 38 56 -63 0
31 -25 33 -40 -35 42 30 45 -56 63 0
31 -33 40 -27 35 -42 30 45 56 -63 0
23 25 -33 -40 -27 42 38 45 -56 63 0
22 -25 33 27 -35 -42 38 45 56 -63 0
23 25 33 40 27 -35 53 30 -38 -45 63 0
22 23 31 -25 40 35 42 30 38 -56 -63 0
22 23 31 25 40 -35 42 30 38 -56 -63 0
22 23 31 25 40 42 -53 30 -38 56 -63 0
22 23 31 33 40 42 -53 -30 38 56 -63 0
22 23 31 40 27 42 -53 30 -38 -56 63 0
23 31 -33 40 27 42 53 -30 -38 56 63 0
23 31 33 40 -27 42 53 -30 -38 56 63 0
22 23 31 40 35 42 -53 -30 38 -56 63 0
23 31 -25 40 35 42 53 -30 -38 56 63 0
23 31 25 40 -35 42 53 -30 -38 56 63 0
22 23 31 33 -40 27 35 30 45 -56 -63 0
22 23 31 -25 33 35 42 30 45 -56 -63 0
22 23 31 25 33 35 -42 30 45 -56 -63 0
22 23 31 25 33 35 -53 30 -45 56 -63 0
22 23 31 33 40 35 -53 -30 45 56 -63 0
22 23 31 33 27 35 -53 30 -45 -56 63 0
22 31 33 -40 27 35 53 -30 -45 56 63 0
22 31 33 40 -27 35 53 -30 -45 56 63 0
22 23 31 33 35 42 -53 -30 45 -56 63 0
22 31 -25 33 35 42 53 -30 -45 56 63 0
22 31 25 33 35 -42 53 -30 -45 56 63 0
22 23 31 25 -40 27 35 38 45 -56 -63 0
22 23 31 25 40 27 -35 38 45 -56 -63 0
22 23 31 25 -33 27 42 38 45 -56 -63 0
22 23 31 25 33 27 -42 38 45 -56 -63 0
22 23 31 25 33 27 -53 38 -45 56 -63 0
22 23 31 25 40 27 -53 -38 45 56 -63 0
22 23 31 25 27 35 -53 38 -45 -56 63 0
22 23 25 -40 27 35 53 -38 -45 56 63 0
22 23 31 25 27 42 -53 -38 45 -56 63 0
22 23 25 -33 27 42 53 -38 -45 56 63 0
31 -26 34 -41 -35 42 28 43 -58 61 0
31 -34 41 -27 35 -42 28 43 58 -61 0
22 23 -41 27 35 42 57 28 -36 43 -58 0
22 23 31 -34 41 27 42 28 36 -58 -61 0
22 23 31 -26 41 35 42 28 36 -58 -61 0
22 23 31 26 41 -35 42 28 36 -58 -61 0
22 23 31 26 41 42 -57 28 -36 58 -61 0
22 23 31 34 41 42 -57 -28 36 58 -61 0
22 23 31 41 27 42 -57 28 -36 -58 61 0
23 31 34 41 -27 42 57 -28 -36 58 61 0
23 31 -26 41 35 42 57 -28 -36 58 61 0
23 31 26 41 -35 42 57 -28 -36 58 61 0
22 23 31 34 -41 27 35 28 43 -58 -61 0
22 23 31 34 41 -27 35 28 43 -58 -61 0
22 23 31 -26 34 35 42 28 43 -58 -61 0
22 23 31 26 34 35 -42 28 43 -58 -61 0
22 31 34 -41 27 35 57 -28 -43 58 61 0
22 31 34 41 -27 35 57 -28 -43 58 61 0
22 31 26 34 35 -42 57 -28 -43 58 61 0
22 23 31 26 -41 27 35 36 43 -58 -61 0
22 23 31 26 41 27 -35 36 43 -58 -61 0
22 23 31 26 -34 27 42 36 43 -58 -61 0
22 23 26 41 27 -35 42 -36 43 -58 61 0
22 23 31 26 41 27 -57 -36 43 58 -61 0
22 23 26 -41 27 35 57 -36 -43 58 61 0
22 23 26 41 27 -35 57 -36 -43 58 61 0
22 23 26 34 27 -42 57 -36 -43 58 61 0
22 26 -34 -27 35 -42 29 44 59 -62 0
23 31 34 41 -27 42 57 -29 -37 59 62 0
22 23 31 34 -41 27 35 29 44 -59 -62 0
22 23 31 26 34 35 -42 29 44 -59 -62 0
22 31 34 -41 27 35 57 -29 -44 59 62 0
23 -26 -34 41 27 -42 30 38 -60 63 0
23 26 -41 -27 -35 42 30 38 60 -63 0
22 26 -34 -27 35 -42 30 45 60 -63 0
31 -34 41 -27 35 -42 30 45 60 -63 0
22 -26 34 27 -35 -42 38 45 60 -63 0
22 23 31 26 41 -35 42 30 38 -60 -63 0
22 23 31 34 -41 27 35 30 45 -60 -63 0
22 23 31 34 41 -27 35 30 45 -60 -63 0
22 23 31 -26 34 35 42 30 45 -60 -63 0
22 23 31 26 34 35 -42 30 45 -60 -63 0
22 23 31 26 34 35 -57 30 -45 60 -63 0
22 31 34 -41 27 35 57 -30 -45 60 63 0
22 31 34 41 -27 35 57 -30 -45 60 63 0
22 23 31 34 35 42 -57 -30 45 -60 63 0
22 31 26 34 35 -42 57 -30 -45 60 63 0
22 23 31 26 41 27 -35 38 45 -60 -63 0
22 23 31 26 34 27 -42 38 45 -60 -63 0
22 23 31 26 34 27 -57 38 -45 60 -63 0
22 23 26 -34 27 42 57 -38 -45 60 63 0
22 25 -33 -26 -47 52 28 36 49 -58 0
22 -24 -25 33 -34 52 -28 49 54 58 0
22 24 -32 -26 34 -52 28 49 54 -58 0
-32 -25 -46 -26 -34 28 -36 -49 -54 58 0
-24 -33 -46 -26 -34 -28 36 -49 -54 58 0
-24 -25 -33 -34 -47 -28 36 -49 54 -58 0
-24 -25 -33 -34 -47 28 -36 -49 54 -58 0
-24 -32 -33 -26 -52 -28 36 49 -54 -58 0
-24 -32 -33 -26 -52 28 -36 49 -54 -58 0
-24 -32 -25 -34 -52 28 -36 -49 54 -58 0
-24 -32 -25 -34 -52 -28 36 49 -54 -58 0
-24 -32 -25 -34 -52 28 -36 49 -54 -58 0
22 -24 -46 26 -34 47 29 37 -50 55 0
32 -33 46 -26 34 -47 29 50 55 -59 0
22 -24 -33 26 -34 47 -37 50 55 59 0
-32 -25 -33 -26 -47 29 -37 -50 55 -59 0
-24 -25 -33 -34 -47 29 -37 -50 55 -59 0
22 -24 -46 26 -34 47 30 38 -51 56 0
-32 25 -46 -26 47 52 30 38 -51 56 0
22 -24 32 -33 46 -52 30 38 -56 60 0
-32 33 46 -26 34 -52 30 51 56 -60 0
22 -25 33 26 -34 -47 38 51 56 -60 0
-32 -25 -46 -26 -34 -30 38 -51 -56 60 0
-32 -25 -46 -26 -34 -30 -38 51 56 -60 0
-32 -25 -46 -26 -34 -30 38 51 -56 -60 0
-24 -33 -46 -26 -34 -30 38 -51 -56 60 0
-24 -33 -46 -26 -34 30 -38 -51 -56 60 0
-32 -25 -33 -26 -47 30 -38 -51 56 -60 0
-32 -25 -33 -26 -47 -30 38 51 -56 -60 0
-24 -25 -33 -34 -47 -30 38 -51 -56 60 0
-24 -25 -33 -34 -47 -30 38 -51 56 -60 0
-24 -25 -33 -34 -47 30 -38 -51 56 -60 0
-24 -32 -33 -26 -52 -30 38 -51 56 -60 0
-24 -32 -33 -26 -52 -30 38 51 -56 -60 0
-24 -32 -33 -26 -52 30 -38 51 -56 -60 0
-24 -32 -25 -34 -52 -30 -38 -51 56 60 0
-24 -32 -25 -34 -52 -30 38 -51 -56 60 0
-24 -32 -25 -34 -52 30 -38 -51 56 -60 0
-24 -32 -25 -34 -52 -30 38 51 -56 -60 0
-24 -32 -25 -34 -52 30 -38 51 -56 -60 0
22 -33 -46 -27 35 53 28 36 49 -54 0
22 -25 33 -35 -48 53 28 36 49 -61 0
22 -24 32 -33 46 -27 -28 49 54 61 0
22 -32 -25 33 46 -27 -28 49 54 61 0
22 -25 33 -46 27 -35 28 49 -54 61 0
22 -24 32 25 -33 -48 28 -49 54 61 0
22 24 -32 -27 35 -53 28 49 54 -61 0
22 -24 25 -33 46 -35 -36 49 54 61 0
22 -24 32 25 -33 -53 36 49 -54 61 0
-32 -25 -46 -27 -35 -28 36 -49 -54 61 0
-24 -33 -46 -27 -35 28 -36 -49 -54 61 0
-32 -25 -33 -27 -48 28 -36 -49 -54 61 0
-32 -25 -33 -27 -48 -28 36 -49 54 -61 0
-32 -25 -33 -27 -48 28 -36 -49 54 -61 0
-24 -25 -33 -35 -48 -28 36 -49 54 -61 0
-24 -25 -33 -35 -48 28 -36 -49 54 -61 0
-24 -32 -33 -27 -53 28 -36 -49 -54 61 0
-24 -32 -33 -27 -53 -28 36 -49 54 -61 0
-24 -32 -25 -35 -53 -28 -36 -49 54 61 0
-24 -32 -25 -35 -53 -28 36 49 -54 -61 0
-24 -32 -25 -35 -53 28 -36 49 -54 -61 0
-32 -25 -33 -27 -48 29 -37 -50 55 -62 0
-24 -32 -33 -27 -53 29 -37 50 -55 -62 0
22 -25 33 -46 27 -35 30 51 -56 63 0
22 -24 32 -25 -35 48 -30 51 56 63 0
22 -24 -25 33 -35 53 -30 51 56 63 0
22 24 -32 -33 -27 48 -38 51 56 63 0
22 -24 32 27 -35 -53 38 51 56 -63 0
-32 -25 -46 -27 -35 -30 38 -51 -56 63 0
-32 -25 -46 -27 -35 -30 -38 51 56 -63 0
-32 -25 -46 -27 -35 -30 38 51 -56 -63 0
-24 -33 -46 -27 -35 30 -38 -51 -56 63 0
-24 -33 -46 -27 -35 30 -38 51 -56 -63 0
-32 -25 -33 -27 -48 -30 38 -51 56 -63 0
-32 -25 -33 -27 -48 -30 38 51 -56 -63 0
-24 -25 -33 -35 -48 -30 38 -51 -56 63 0
-24 -25 -33 -35 -48 -30 38 -51 56 -63 0
-24 -25 -33 -35 -48 30 -38 -51 56 -63 0
-24 -32 -25 -35 -53 -30 38 -51 -56 63 0
-24 -32 -25 -35 -53 30 -38 -51 56 -63 0
-24 -32 -25 -35 -53 -30 38 51 -56 -63 0
-24 -32 -25 -35 -53 30 -38 51 -56 -63 0
22 -24 -33 -46 -36 -49 -54 -29 37 -50 -64 0
22 -32 -47 -27 35 48 28 36 -49 58 0
-24 -26 34 27 -35 57 -28 36 49 58 0
22 26 -34 -27 -48 57 28 36 49 -61 0
22 -24 32 -34 47 -27 -28 49 58 61 0
22 -32 -26 -27 35 48 -28 49 58 61 0
22 -24 -34 -27 35 57 -28 49 58 61 0
22 24 -32 -26 47 -35 -36 49 58 61 0
22 -24 32 26 -34 -57 36 49 -58 61 0
-32 -26 -47 -27 -35 -28 36 -49 -58 61 0
-32 -26 -47 -27 -35 28 -36 -49 -58 61 0
-32 -26 -47 -27 -35 -28 -36 49 58 -61 0
-32 -26 -47 -27 -35 -28 36 49 -58 -61 0
-24 -34 -47 -27 -35 -28 36 -49 -58 61 0
-24 -34 -47 -27 -35 28 -36 -49 -58 61 0
-24 -34 -47 -27 -35 -28 -36 49 58 -61 0
-24 -34 -47 -27 -35 -28 36 -49 58 -61 0
-24 -34 -47 -27 -35 28 -36 49 -58 -61 0
-32 -26 -34 -27 -48 28 -36 -49 58 -61 0
-24 -26 -34 -35 -48 -28 36 -49 58 -61 0
-24 -32 -34 -27 -57 28 -36 -49 -58 61 0
-24 -32 -26 -35 -57 -28 36 49 -58 -61 0
-32 -26 -34 -27 -48 29 -37 -50 59 -62 0
-24 -32 -34 -27 -57 29 -37 -50 -59 62 0
-24 -32 -34 -27 -57 -29 37 -50 59 -62 0
24 -32 -34 -27 35 48 30 -38 51 60 0
22 -26 34 -35 -48 57 30 38 51 -63 0
22 24 -32 -26 47 -57 30 38 -60 63 0
22 -24 -34 -27 35 57 -30 51 60 63 0
-32 -26 -47 -27 -35 -30 38 -51 -60 63 0
-24 -34 -47 -27 -35 -30 38 -51 -60 63 0
-32 -26 -34 -27 -48 30 -38 -51 60 -63 0
-24 -32 -34 -27 -57 -30 -38 -51 60 63 0
-24 -32 -34 -27 -57 -30 38 51 -60 -63 0
-24 -32 -34 -27 -57 30 -38 51 -60 -63 0
-24 -32 -26 -35 -57 -30 38 51 -60 -63 0
-24 -32 -26 -35 -57 30 -38 51 -60 -63 0
22 -24 -34 -47 -37 -50 -59 -30 38 -51 -66 0
22 -34 -52 -27 35 57 28 36 54 -58 0
22 26 -34 -27 -53 57 28 36 54 -61 0
22 -25 33 -35 53 -57 28 36 58 -61 0
22 -33 -26 34 52 -27 -28 54 58 61 0
22 -25 26 -34 52 -35 -36 54 58 61 0
-33 -26 -52 -27 -35 -28 36 -54 -58 61 0
-33 -26 -52 -27 -35 28 -36 -54 -58 61 0
-33 -26 -52 -27 -35 -28 -36 54 58 -61 0
-33 -26 -52 -27 -35 28 -36 -54 58 -61 0
-25 -34 -52 -27 -35 -28 36 -54 -58 61 0
-25 -34 -52 -27 -35 28 -36 -54 -58 61 0
-33 -26 -34 -27 -53 28 -36 -54 -58 61 0
-33 -26 -34 -27 -53 -28 36 -54 58 -61 0
-33 -26 -34 -27 -53 28 -36 -54 58 -61 0
-33 -26 -34 -27 -53 -28 36 54 -58 -61 0
-25 -26 -34 -35 -53 -28 36 -54 58 -61 0
-25 -26 -34 -35 -53 28 -36 54 -58 -61 0
-25 -33 -34 -27 -57 28 -36 -54 -58 61 0
-25 -33 -34 -27 -57 -28 36 54 -58 -61 0
-25 -33 -26 -35 -57 -28 -36 -54 58 61 0
-25 -33 -26 -35 -57 28 -36 54 -58 -61 0
25 33 26 34 52 -35 53 -28 36 58 -61 0
22 25 26 34 -52 27 35 36 -54 58 -61 0
-33 -26 -52 -27 -35 -29 37 -55 -59 62 0
-33 -26 -52 -27 -35 29 -37 -55 -59 62 0
-33 -26 -52 -27 -35 29 -37 -55 59 -62 0
22 -25 26 -34 52 -53 30 38 -56 63 0
22 26 -34 -27 -53 57 30 38 56 -63 0
22 -26 34 -35 -53 57 30 38 56 -63 0
22 -25 33 -34 52 -57 30 38 -60 63 0
22 26 -34 -27 35 -53 30 56 60 -63 0
22 25 -33 -26 34 -57 30 56 -60 63 0
22 -25 -26 34 -35 57 -30 56 60 63 0
22 -25 -34 -27 35 57 -30 56 60 63 0
22 25 -33 -26 52 -35 -38 56 60 63 0
25 -33 -26 27 -53 57 38 -56 60 63 0
-33 -26 -52 -27 -35 -30 38 -56 -60 63 0
-33 -26 -52 -27 -35 -30 38 56 -60 -63 0
-25 -34 -52 -27 -35 -30 38 -56 -60 63 0
-25 -34 -52 -27 -35 30 -38 -56 -60 63 0
-33 -26 -34 -27 -53 30 -38 -56 -60 63 0
-33 -26 -34 -27 -53 -30 38 -56 60 -63 0
-25 -26 -34 -35 -53 -30 -38 56 -60 63 0
-25 -26 -34 -35 -53 -30 38 -56 -60 63 0
-25 -26 -34 -35 -53 -30 38 -56 60 -63 0
-25 -26 -34 -35 -53 30 -38 -56 60 -63 0
-25 -26 -34 -35 -53 30 -38 56 -60 -63 0
-25 -33 -34 -27 -57 30 -38 -56 -60 63 0
-25 -33 -34 -27 -57 -30 38 56 -60 -63 0
-25 -33 -26 -35 -57 -30 -38 -56 60 63 0
-25 -33 -26 -35 -57 -30 38 -56 -60 63 0
-25 -33 -26 -35 -57 -30 38 56 -60 -63 0
23 -25 -46 26 -41 52 28 43 49 -54 0
23 -24 25 -40 46 -47 28 43 -49 58 0
23 -25 40 -41 -47 52 28 43 49 -58 0
23 -25 40 -46 26 -41 28 49 -54 58 0
23 25 -40 -46 -26 41 43 49 -54 58 0
-39 -25 -46 -26 -41 28 -43 -49 -54 58 0
-39 -25 -46 -26 -41 28 -43 -49 54 -58 0
-39 -25 -46 -26 -41 -28 43 49 -54 -58 0
-24 -40 -46 -26 -41 -28 43 -49 -54 58 0
-24 -40 -46 -26 -41 28 -43 -49 -54 58 0
-24 -40 -46 -26 -41 -28 43 -49 54 -58 0
-24 -40 -46 -26 -41 28 -43 49 -54 -58 0
-39 -25 -40 -26 -47 -28 43 -49 54 -58 0
-39 -25 -40 -26 -47 28 -43 -49 54 -58 0
-24 -25 -40 -41 -47 -28 43 -49 54 -58 0
-24 -25 -40 -41 -47 28 -43 -49 54 -58 0
-24 -39 -40 -26 -52 -28 43 49 -54 -58 0
-24 -39 -40 -26 -52 28 -43 49 -54 -58 0
-24 -39 -25 -41 -52 -28 43 49 -54 -58 0
23 39 25 40 46 -47 52 -28 43 49 -58 0
23 24 39 40 46 47 -52 -28 43 54 -58 0
-24 -39 -40 -26 -52 -29 44 50 -55 -59 0
-24 -39 -40 -26 -52 29 -44 50 -55 -59 0
23 -39 -46 -26 41 47 30 45 -51 56 0
23 -25 -46 26 -41 52 30 45 51 -56 0
23 -40 -46 -26 41 52 30 45 51 -56 0
23 25 -40 -26 -47 52 30 45 51 -60 0
23 -25 40 -41 -47 52 30 45 51 -60 0
23 24 -39 -25 46 -52 30 45 -56 60 0
23 -24 39 -40 46 -52 30 45 -56 60 0
23 24 -39 -26 47 -52 30 45 56 -60 0
23 -24 39 -25 -41 47 -30 51 56 60 0
23 -24 -25 40 -41 52 -30 51 56 60 0
23 -24 39 26 -41 -52 45 51 56 -60 0
-39 -25 -46 -26 -41 -30 45 -51 -56 60 0
-39 -25 -46 -26 -41 30 -45 -51 -56 60 0
-39 -25 -46 -26 -41 -30 -45 51 56 -60 0
-39 -25 -46 -26 -41 30 -45 -51 56 -60 0
-39 -25 -46 -26 -41 -30 45 51 -56 -60 0
-24 -40 -46 -26 -41 -30 45 -51 -56 60 0
-24 -40 -46 -26 -41 30 -45 -51 -56 60 0
-24 -40 -46 -26 -41 -30 -45 51 56 -60 0
-24 -40 -46 -26 -41 -30 45 -51 56 -60 0
-24 -40 -46 -26 -41 30 -45 51 -56 -60 0
-39 -25 -40 -26 -47 -30 -45 51 -56 60 0
-39 -25 -40 -26 -47 30 -45 -51 -56 60 0
-39 -25 -40 -26 -47 -30 45 -51 56 -60 0
-39 -25 -40 -26 -47 -30 45 51 -56 -60 0
-24 -25 -40 -41 -47 -30 -45 51 -56 60 0
-24 -25 -40 -41 -47 -30 45 -51 -56 60 0
-24 -25 -40 -41 -47 -30 45 -51 56 -60 0
-24 -25 -40 -41 -47 30 -45 -51 56 -60 0
-24 -39 -40 -26 -52 -30 45 51 -56 -60 0
-24 -39 -25 -41 -52 -30 -45 -51 56 60 0
-24 -39 -25 -41 -52 -30 45 51 -56 -60 0
23 -39 -25 40 46 -48 28 43 -49 61 0
23 -24 39 -42 48 -53 28 43 54 -61 0
23 -24 -40 -27 42 53 -28 49 54 61 0
-39 -25 -46 -27 -42 -28 43 -49 -54 61 0
-24 -40 -46 -27 -42 -28 43 -49 -54 61 0
-39 -25 -40 -27 -48 -28 43 -49 54 -61 0
-39 -25 -40 -27 -48 28 -43 -49 54 -61 0
-39 -25 -40 -27 -48 -28 43 49 -54 -61 0
-24 -39 -40 -27 -53 -28 43 49 -54 -61 0
-24 -39 -25 -42 -53 -28 -43 -49 54 61 0
-24 -39 -25 -42 -53 -28 43 49 -54 -61 0
-24 -39 -25 -42 -53 28 -43 49 -54 -61 0
23 25 -40 -46 -27 42 44 50 -55 62 0
-24 -39 -40 -27 -53 -29 44 -50 55 -62 0
23 -25 40 -46 27 -42 30 51 -56 63 0
23 24 -39 -25 46 -42 -45 51 56 63 0
23 -24 25 -40 46 -42 -45 51 56 63 0
23 25 -40 -46 -27 42 45 51 -56 63 0
23 -24 -40 27 -42 48 -45 51 56 63 0
-39 -25 -46 -27 -42 -30 45 -51 -56 63 0
-39 -25 -46 -27 -42 30 -45 -51 56 -63 0
-39 -25 -46 -27 -42 -30 45 51 -56 -63 0
-24 -40 -46 -27 -42 30 -45 -51 -56 63 0
-24 -40 -46 -27 -42 -30 45 -51 56 -63 0
-39 -25 -40 -27 -48 -30 45 51 -56 -63 0
-24 -25 -40 -42 -48 -30 45 -51 -56 63 0
-24 -25 -40 -42 -48 -30 45 -51 56 -63 0
-24 -39 -40 -27 -53 30 -45 51 -56 -63 0
-24 -39 -25 -42 -53 -30 -45 -51 56 63 0
-24 -39 -25 -42 -53 -30 45 -51 -56 63 0
-24 -39 -25 -42 -53 30 -45 -51 56 -63 0
-24 -39 -25 -42 -53 -30 45 51 -56 -63 0
-24 -39 -25 -42 -53 30 -45 51 -56 -63 0
24 -39 -41 -27 42 48 28 -43 49 58 0
23 -24 -47 27 -42 48 28 43 -49 58 0
23 -41 -47 -27 42 57 28 43 49 -58 0
23 26 -41 -27 -48 57 28 43 49 -61 0
-24 39 26 -41 47 -42 28 -43 58 61 0
23 24 -39 -27 48 -57 28 43 58 -61 0
23 -24 39 -42 48 -57 28 43 58 -61 0
23 26 -41 -27 42 -48 28 49 58 -61 0
23 26 -41 -47 -27 42 43 49 -58 61 0
-39 -26 -47 -27 -42 -28 43 -49 -58 61 0
-39 -26 -47 -27 -42 28 -43 -49 -58 61 0
-39 -26 -47 -27 -42 -28 -43 49 58 -61 0
-39 -26 -47 -27 -42 -28 43 49 -58 -61 0
-24 -41 -47 -27 -42 28 -43 -49 -58 61 0
-24 -41 -47 -27 -42 -28 43 -49 58 -61 0
-24 -41 -47 -27 -42 28 -43 49 -58 -61 0
-39 -26 -41 -27 -48 -28 -43 49 -58 61 0
-39 -26 -41 -27 -48 -28 43 49 -58 -61 0
-24 -26 -41 -42 -48 -28 43 -49 -58 61 0
-24 -26 -41 -42 -48 28 -43 -49 58 -61 0
-24 -26 -41 -42 -48 28 -43 49 -58 -61 0
-24 -39 -41 -27 -57 -28 43 -49 58 -61 0
-24 -39 -41 -27 -57 -28 43 49 -58 -61 0
-24 -39 -41 -27 -57 28 -43 49 -58 -61 0
-24 -39 -26 -42 -57 28 -43 49 -58 -61 0
23 -41 -47 -27 42 57 29 44 50 -59 0
-24 -41 -47 -27 -42 -29 44 -50 -59 62 0
-24 -41 -47 -27 -42 29 -44 -50 -59 62 0
23 -24 -47 27 -42 48 30 45 -51 60 0
-39 26 -41 -27 42 57 30 -45 51 60 0
-39 -26 41 27 -42 57 30 -45 51 63 0
23 24 -39 -26 47 -57 30 45 -60 63 0
23 -24 39 -41 47 -57 30 45 -60 63 0
23 24 -39 -27 48 -57 30 45 60 -63 0
23 26 -41 -27 42 -48 30 51 60 -63 0
-39 -26 -47 -27 -42 -30 45 -51 -60 63 0
-39 -26 -47 -27 -42 30 -45 -51 60 -63 0
-39 -26 -47 -27 -42 -30 45 51 -60 -63 0
-24 -41 -47 -27 -42 -30 45 -51 -60 63 0
-24 -41 -47 -27 -42 -30 45 -51 60 -63 0
-39 -26 -41 -27 -48 -30 45 -51 60 -63 0
-24 -26 -41 -42 -48 -30 45 -51 -60 63 0
-24 -39 -41 -27 -57 -30 45 51 -60 -63 0
-24 -39 -41 -27 -57 30 -45 51 -60 -63 0
-24 -39 -26 -42 -57 30 -45 -51 60 -63 0
-24 -39 -26 -42 -57 -30 45 51 -60 -63 0
-24 -39 -26 -42 -57 30 -45 51 -60 -63 0
23 24 39 47 42 48 -57 -30 45 -60 63 0
23 -24 -41 -47 -43 -49 -58 -30 45 -51 -65 0
-24 39 -27 -42 -28 43 -49 -30 -45 -63 -65 0
-25 40 26 -41 52 -42 28 -43 58 61 0
-25 40 -41 27 -42 53 28 -43 58 61 0
23 -25 40 -41 52 -27 -28 54 58 61 0
23 -25 -41 -27 42 57 -28 54 58 61 0
25 26 -41 -52 -27 53 43 54 -58 61 0
23 -25 40 26 -41 -57 43 54 -58 61 0
-40 -26 -52 -27 -42 28 -43 -54 -58 61 0
-25 -41 -52 -27 -42 -28 43 -54 -58 61 0
-25 -41 -52 -27 -42 28 -43 -54 -58 61 0
-25 -41 -52 -27 -42 -28 43 -54 58 -61 0
-25 -41 -52 -27 -42 28 -43 54 -58 -61 0
-40 -26 -41 -27 -53 -28 43 -54 58 -61 0
-40 -26 -41 -27 -53 28 -43 -54 58 -61 0
-40 -26 -41 -27 -53 -28 43 54 -58 -61 0
-25 -26 -41 -42 -53 -28 43 -54 58 -61 0
-25 -26 -41 -42 -53 28 -43 -54 58 -61 0
-25 -26 -41 -42 -53 28 -43 54 -58 -61 0
-25 -40 -41 -27 -57 -28 -43 -54 58 61 0
-25 -40 -41 -27 -57 -28 43 -54 58 -61 0
-25 -40 -41 -27 -57 -28 43 54 -58 -61 0
-25 -40 -41 -27 -57 28 -43 54 -58 -61 0
-25 -40 -26 -42 -57 -28 43 54 -58 -61 0
-25 -40 -26 -42 -57 28 -43 54 -58 -61 0
23 25 -52 27 42 53 57 28 -43 54 -58 0
23 40 -52 27 42 53 57 -28 43 54 -58 0
23 -40 -52 -27 42 53 29 44 -55 59 0
23 -40 26 -41 -27 57 -44 55 59 62 0
-25 -41 -52 -27 -42 -29 -44 55 59 -62 0
25 -40 -41 -27 42 53 30 -45 56 60 0
23 -25 -52 27 -42 53 30 45 -56 60 0
25 -40 -26 41 52 -27 -30 45 60 63 0
40 -26 -41 52 42 -53 30 45 -60 63 0
23 -25 40 -41 52 -57 30 45 -60 63 0
40 -26 41 -52 -42 53 30 56 -60 63 0
23 25 -40 -26 41 -53 45 -56 60 63 0
25 26 -41 -52 -27 53 45 56 -60 63 0
-25 26 -41 27 53 -57 45 56 -60 63 0
-40 -26 -52 -27 -42 -30 45 -56 -60 63 0
-40 -26 -52 -27 -42 30 -45 -56 -60 63 0
-25 -41 -52 -27 -42 30 -45 -56 -60 63 0
-25 -41 -52 -27 -42 -30 45 -56 60 -63 0
-40 -26 -41 -27 -53 30 -45 -56 -60 63 0
-40 -26 -41 -27 -53 -30 45 -56 60 -63 0
-40 -26 -41 -27 -53 30 -45 -56 60 -63 0
-40 -26 -41 -27 -53 -30 45 56 -60 -63 0
-25 -26 -41 -42 -53 30 -45 -56 60 -63 0
-25 -40 -41 -27 -57 -30 -45 -56 60 63 0
-25 -40 -41 -27 -57 30 -45 -56 -60 63 0
-25 -40 -41 -27 -57 -30 45 -56 60 -63 0
-25 -40 -41 -27 -57 -30 45 56 -60 -63 0
-25 -40 -41 -27 -57 30 -45 56 -60 -63 0
-25 -40 -26 -42 -57 -30 -45 -56 60 63 0
-25 -40 -26 -42 -57 -30 45 -56 -60 63 0
-25 -40 -26 -42 -57 30 -45 -56 60 -63 0
-25 -40 -26 -42 -57 30 -45 56 -60 -63 0
-25 40 -26 -41 -29 44 -55 -30 -45 -60 -66 0
26 -41 -27 -42 -28 -43 -61 30 -45 -60 -65 0
26 -41 -27 -42 28 -43 -58 -30 -45 -63 -65 0
-24 -46 47 52 53 -57 28 -49 54 61 0
46 -47 52 -27 48 -53 28 54 58 -61 0
-46 47 52 -27 48 -57 28 54 58 -61 0
-25 46 -47 48 -53 57 28 -54 58 61 0
-46 -26 -52 -27 -48 -28 49 -54 -58 61 0
-46 -26 -52 -27 -48 28 -49 -54 -58 61 0
-46 -26 -52 -27 -48 -28 49 54 -58 -61 0
-25 -47 -52 -27 -48 -28 -49 54 58 -61 0
-25 -47 -52 -27 -48 -28 49 -54 58 -61 0
-46 -26 -47 -27 -53 -28 -49 54 -58 61 0
-46 -26 -47 -27 -53 -28 49 -54 58 -61 0
-46 -26 -47 -27 -53 -28 49 54 -58 -61 0
-24 -47 -52 -27 -53 -28 -49 54 58 -61 0
-24 -47 -52 -27 -53 -28 49 -54 58 -61 0
-25 -26 -47 -48 -53 -28 -49 54 -58 61 0
-25 -26 -47 -48 -53 -28 49 -54 -58 61 0
-24 -26 -52 -48 -53 -28 -49 54 -58 61 0
-24 -26 -52 -48 -53 -28 49 -54 -58 61 0
-25 -46 -47 -27 -57 28 -49 -54 -58 61 0
-24 -46 -52 -27 -57 28 -49 -54 -58 61 0
-24 -46 -52 -27 -57 -28 49 54 -58 -61 0
-25 -46 -26 -48 -57 -28 49 -54 -58 61 0
-25 -46 -26 -48 -57 -28 49 54 -58 -61 0
-24 -25 -52 -48 -57 -28 -49 -54 58 61 0
-24 -25 -52 -48 -57 -28 -49 54 58 -61 0
-24 -25 -47 -53 -57 -28 49 -54 58 -61 0
-46 47 52 -27 53 -57 29 50 59 -62 0
-24 -47 -52 -27 -53 29 50 -55 -59 -62 0
-25 -26 -47 -48 -53 -29 -50 55 -59 62 0
-25 -46 47 52 48 -57 30 51 -56 63 0
-46 -26 -52 -27 -48 30 -51 -56 -60 63 0
-46 -26 -52 -27 -48 -30 -51 56 60 -63 0
-46 -26 -52 -27 -48 30 -51 -56 60 -63 0
-46 -26 -52 -27 -48 -30 51 56 -60 -63 0
-25 -47 -52 -27 -48 30 -51 -56 -60 63 0
-25 -47 -52 -27 -48 -30 51 -56 60 -63 0
-46 -26 -47 -27 -53 -30 -51 56 -60 63 0
-46 -26 -47 -27 -53 -30 51 -56 60 -63 0
-46 -26 -47 -27 -53 30 -51 -56 60 -63 0
-46 -26 -47 -27 -53 -30 51 56 -60 -63 0
-24 -47 -52 -27 -53 30 -51 -56 -60 63 0
-24 -47 -52 -27 -53 -30 -51 56 60 -63 0
-24 -47 -52 -27 -53 -30 51 -56 60 -63 0
-24 -47 -52 -27 -53 30 51 -56 -60 -63 0
-25 -26 -47 -48 -53 -30 51 -56 -60 63 0
-24 -26 -52 -48 -53 -30 -51 56 -60 63 0
-24 -26 -52 -48 -53 -30 51 -56 -60 63 0
-24 -26 -52 -48 -53 30 -51 -56 60 -63 0
-25 -46 -47 -27 -57 -30 -51 -56 60 63 0
-25 -46 -47 -27 -57 30 -51 -56 -60 63 0
-25 -46 -47 -27 -57 -30 51 -56 60 -63 0
-25 -46 -47 -27 -57 -30 51 56 -60 -63 0
-25 -46 -47 -27 -57 30 -51 56 -60 -63 0
-24 -46 -52 -27 -57 30 -51 -56 -60 63 0
-24 -46 -52 -27 -57 -30 -51 56 60 -63 0
-24 -46 -52 -27 -57 -30 51 56 -60 -63 0
-24 -46 -52 -27 -57 30 51 -56 -60 -63 0
-25 -46 -26 -48 -57 -30 -51 -56 60 63 0
-25 -46 -26 -48 -57 -30 51 56 -60 -63 0
-24 -25 -52 -48 -57 -30 -51 -56 60 63 0
-24 -25 -52 -48 -57 -30 51 -56 -60 63 0
-24 -25 -52 -48 -57 30 -51 56 -60 -63 0
-24 -25 -52 -48 -57 30 51 -56 -60 -63 0
-24 -46 -26 -53 -57 -30 -51 56 -60 63 0
-24 -46 -26 -53 -57 -30 51 56 -60 -63 0
-24 -25 -47 -53 -57 -30 -51 -56 60 63 0
-24 -25 -47 -53 -57 -30 51 -56 60 -63 0
-24 -25 -47 -53 -57 30 -51 56 -60 -63 0
-24 -25 -47 -53 -57 30 51 -56 -60 -63 0
-24 25 -47 -52 -28 -49 -58 30 -56 -60 -65 0
-26 -47 -27 48 -28 -58 -61 -51 -60 63 -65 0
-25 52 -27 -57 54 -58 -61 -30 -56 -63 -65 0
-25 -26 -53 57 -28 -54 -61 -30 -60 63 -65 0
-26 52 -27 -53 -28 -58 -61 -56 60 -63 -65 0
31 -33 -46 34 -41 52 36 43 49 -54 0
-32 39 33 -40 46 -34 -36 43 49 58 0
31 -39 -33 40 46 -47 36 43 -49 58 0
-32 -39 40 46 41 -52 36 43 -49 58 0
31 -32 39 -41 47 -52 36 43 54 -58 0
31 -39 -33 -34 41 47 -36 49 54 58 0
31 32 -39 -33 40 -52 36 49 -54 58 0
31 32 -39 -34 41 -52 36 49 54 -58 0
31 -32 -40 -34 41 52 -36 49 54 58 0
31 32 -39 -33 46 -41 -43 49 54 58 0
-39 -33 -46 -34 -41 -36 43 -49 -54 58 0
-32 -40 -46 -34 -41 -36 43 -49 -54 58 0
-32 -40 -46 -34 -41 36 -43 -49 -54 58 0
-32 -40 -46 -34 -41 -36 -43 49 54 -58 0
-32 -40 -46 -34 -41 -36 43 -49 54 -58 0
-39 -33 -40 -34 -47 -36 -43 49 -54 58 0
-39 -33 -40 -34 -47 36 -43 -49 -54 58 0
-39 -33 -40 -34 -47 -36 43 -49 54 -58 0
-39 -33 -40 -34 -47 36 -43 -49 54 -58 0
-39 -33 -40 -34 -47 -36 43 49 -54 -58 0
-32 -33 -40 -41 -47 -36 43 -49 54 -58 0
-32 -33 -40 -41 -47 36 -43 -49 54 -58 0
-32 -39 -40 -34 -52 36 -43 -49 -54 58 0
-32 -39 -40 -34 -52 -36 43 -49 54 -58 0
-32 -39 -40 -34 -52 36 -43 49 -54 -58 0
-32 -39 -33 -41 -52 -36 -43 -49 54 58 0
-32 -39 -33 -41 -52 -36 43 49 -54 -58 0
-39 -33 -46 -34 -41 -37 44 -50 -55 59 0
-39 -33 -46 -34 -41 37 -44 -50 -55 59 0
-39 -33 -46 -34 -41 -37 -44 50 55 -59 0
-39 -33 -46 -34 -41 -37 44 50 -55 -59 0
-32 -40 -46 -34 -41 -37 44 -50 -55 59 0
-32 -40 -46 -34 -41 37 -44 -50 -55 59 0
-32 -40 -46 -34 -41 -37 -44 50 55 -59 0
31 -39 -46 -34 41 47 38 45 -51 56 0
31 -40 -46 -34 41 52 38 45 51 -56 0
39 -33 -40 41 -47 52 38 45 51 -56 0
32 -39 -33 -34 41 47 -38 45 56 60 0
39 40 -46 -34 -41 47 38 45 56 -60 0
31 33 -40 -34 41 -47 38 51 56 -60 0
-39 -33 -46 -34 -41 38 -45 -51 -56 60 0
-39 -33 -46 -34 -41 -38 45 51 -56 -60 0
-32 -40 -46 -34 -41 38 -45 -51 -56 60 0
-32 -40 -46 -34 -41 38 -45 51 -56 -60 0
-39 -33 -40 -34 -47 -38 45 -51 56 -60 0
-32 -33 -40 -41 -47 -38 45 -51 -56 60 0
-32 -33 -40 -41 -47 38 -45 -51 56 -60 0
-32 -39 -40 -34 -52 -38 45 51 -56 -60 0
-32 -39 -40 -34 -52 38 -45 51 -56 -60 0
-32 -39 -33 -41 -52 -38 -45 -51 56 60 0
-32 -39 -33 -41 -52 -38 45 51 -56 -60 0
31 -40 -46 -35 42 53 36 43 49 -54 0
31 33 -40 -35 -48 53 36 43 49 -61 0
31 -33 40 -42 -48 53 36 43 49 -61 0
31 32 -39 -35 48 -53 36 43 54 -61 0
31 -32 39 -40 46 -35 -36 49 54 61 0
31 -32 33 -40 46 -42 -43 49 54 61 0
31 -32 39 35 -42 -53 43 49 54 -61 0
-39 -33 -46 -35 -42 -36 43 -49 -54 61 0
-39 -33 -46 -35 -42 36 -43 -49 -54 61 0
-32 -40 -46 -35 -42 -36 43 -49 -54 61 0
-32 -40 -46 -35 -42 36 -43 -49 -54 61 0
-39 -33 -40 -35 -48 36 -43 -49 -54 61 0
-39 -33 -40 -35 -48 -36 43 -49 54 -61 0
-39 -33 -40 -35 -48 36 -43 -49 54 -61 0
-39 -33 -40 -35 -48 -36 43 49 -54 -61 0
-32 -33 -40 -42 -48 -36 -43 49 -54 61 0
-32 -33 -40 -42 -48 -36 43 -49 -54 61 0
-32 -33 -40 -42 -48 -36 43 -49 54 -61 0
-32 -33 -40 -42 -48 36 -43 -49 54 -61 0
-32 -33 -40 -42 -48 36 -43 49 -54 -61 0
-32 -39 -40 -35 -53 36 -43 49 -54 -61 0
-32 -39 -33 -42 -53 36 -43 -49 54 -61 0
-32 -39 -33 -42 -53 -36 43 49 -54 -61 0
-32 -39 -33 -42 -53 36 -43 49 -54 -61 0
31 39 -33 35 42 48 53 36 43 -49 -54 0
31 32 -46 35 42 48 53 36 -43 49 -54 0
31 40 -46 35 42 48 53 -36 43 -49 54 0
31 32 39 33 46 48 -53 36 -43 54 -61 0
31 32 39 33 46 35 -42 43 49 -54 -61 0
-39 -33 46 42 48 -53 37 44 -55 62 0
-39 -33 -40 -35 -48 -37 44 -50 55 -62 0
31 40 -46 35 42 48 53 -37 44 -50 55 0
-32 39 33 -40 46 -42 38 -45 56 63 0
31 -32 39 -42 48 -53 38 45 56 -63 0
-39 -33 46 42 48 -53 38 45 -56 63 0
31 -32 -40 -35 42 53 -38 51 56 63 0
31 -32 33 -40 46 -42 -45 51 56 63 0
31 -32 39 33 -40 -53 45 51 -56 63 0
-39 -33 -46 -35 -42 -38 45 -51 -56 63 0
-32 -33 -40 -42 -48 -38 -45 51 -56 63 0
-32 -33 -40 -42 -48 -38 45 -51 56 -63 0
-32 -39 -40 -35 -53 38 -45 -51 -56 63 0
-32 -39 -40 -35 -53 38 -45 51 -56 -63 0
-32 -39 -33 -42 -53 -38 45 51 -56 -63 0
-32 -39 -33 -42 -53 38 -45 51 -56 -63 0
31 -41 -47 -35 42 57 36 43 49 -58 0
31 -39 -34 41 47 -48 36 43 -49 61 0
31 34 -41 -35 -48 57 36 43 49 -61 0
-39 -34 47 35 -48 57 36 43 -49 61 0
39 -41 47 -35 -48 57 36 43 49 -61 0
31 -34 41 -42 -48 57 36 43 49 -61 0
31 34 -41 -35 42 -48 36 49 58 -61 0
-32 39 41 -47 -42 57 36 -49 58 61 0
-39 -34 -47 -35 -42 -36 43 -49 -58 61 0
-39 -34 -47 -35 -42 -36 43 49 -58 -61 0
-32 -41 -47 -35 -42 -36 43 -49 -58 61 0
-32 -41 -47 -35 -42 36 -43 -49 -58 61 0
-39 -34 -41 -35 -48 36 -43 -49 -58 61 0
-39 -34 -41 -35 -48 -36 43 49 -58 -61 0
-32 -34 -41 -42 -48 -36 -43 49 -58 61 0
-32 -34 -41 -42 -48 -36 43 -49 -58 61 0
-32 -34 -41 -42 -48 36 -43 49 -58 -61 0
-32 -39 -41 -35 -57 -36 43 49 -58 -61 0
-32 -39 -34 -42 -57 -36 -43 -49 58 61 0
-32 -39 -34 -42 -57 -36 43 -49 -58 61 0
31 39 -34 35 42 48 57 36 43 -49 -58 0
31 -32 -47 35 -42 48 37 44 -50 59 0
31 -39 -47 -35 42 48 38 45 -51 60 0
31 -34 -47 35 -42 57 38 45 51 -60 0
-32 -39 41 47 42 -57 38 45 -51 63 0
31 32 -39 -34 47 -57 38 45 -60 63 0
31 34 -41 -47 -35 42 45 51 -60 63 0
31 -39 -34 35 -42 57 -45 51 60 63 0
-39 -34 -47 -35 -42 38 -45 -51 -60 63 0
-39 -34 -47 -35 -42 -38 -45 51 60 -63 0
-39 -34 -47 -35 -42 38 -45 -51 60 -63 0
-39 -34 -47 -35 -42 -38 45 51 -60 -63 0
-32 -41 -47 -35 -42 -38 45 -51 -60 63 0
-32 -41 -47 -35 -42 -38 -45 51 60 -63 0
-32 -41 -47 -35 -42 -38 45 -51 60 -63 0
-32 -34 -41 -42 -48 -38 45 -51 60 -63 0
-32 -34 -41 -42 -48 38 -45 -51 60 -63 0
-32 -34 -41 -42 -48 38 -45 51 -60 -63 0
-32 -39 -41 -35 -57 -38 -45 -51 60 63 0
-32 -39 -41 -35 -57 -38 45 -51 60 -63 0
-32 -39 -41 -35 -57 -38 45 51 -60 -63 0
-32 -39 -41 -35 -57 38 -45 51 -60 -63 0
-32 -39 -34 -42 -57 -38 -45 -51 60 63 0
-32 -39 -34 -42 -57 -38 45 51 -60 -63 0
-33 40 -34 35 -42 53 -36 43 54 58 0
31 -34 -52 35 -42 57 36 43 54 -58 0
-40 -34 41 35 -42 57 36 -43 54 61 0
31 -33 40 -41 52 -35 -36 54 58 61 0
31 -40 -34 41 52 -35 -36 54 58 61 0
31 -33 34 -41 52 -42 -43 54 58 61 0
31 33 -40 -41 -35 53 -43 54 58 61 0
-40 -34 -52 -35 -42 36 -43 -54 -58 61 0
-33 -41 -52 -35 -42 -36 43 -54 -58 61 0
-33 -41 -52 -35 -42 36 -43 -54 -58 61 0
-33 -41 -52 -35 -42 -36 43 -54 58 -61 0
-40 -34 -41 -35 -53 -36 -43 54 -58 61 0
-40 -34 -41 -35 -53 -36 43 54 -58 -61 0
-33 -34 -41 -42 -53 -36 -43 54 -58 61 0
-33 -34 -41 -42 -53 -36 43 -54 58 -61 0
-33 -34 -41 -42 -53 36 -43 54 -58 -61 0
-33 -40 -41 -35 -57 -36 43 -54 58 -61 0
-33 -40 -41 -35 -57 -36 43 54 -58 -61 0
-33 -40 -41 -35 -57 36 -43 54 -58 -61 0
-33 -40 -34 -42 -57 -36 -43 -54 58 61 0
31 40 -52 35 42 53 57 -36 43 54 -58 0
31 33 40 34 52 53 -57 36 -43 58 -61 0
-40 -34 -41 -35 -53 -37 44 -55 59 -62 0
-40 -34 -41 -35 -53 37 -44 -55 59 -62 0
-40 -34 -41 -35 -53 -37 44 55 -59 -62 0
-33 -34 -41 -42 -53 -37 -44 55 -59 62 0
-33 -34 -41 -42 -53 -37 44 -55 -59 62 0
-33 -34 -41 -42 -53 37 -44 -55 59 -62 0
-33 -34 -41 -42 -53 37 -44 55 -59 -62 0
31 -41 -52 -35 42 57 38 45 56 -60 0
31 -40 -34 41 52 -53 38 45 -56 63 0
-33 -41 52 42 -53 57 38 45 -56 63 0
31 33 -40 -34 52 -57 38 45 -60 63 0
40 -34 41 -52 -42 53 38 56 -60 63 0
31 33 -40 -34 52 -42 -45 56 60 63 0
-33 -41 -52 -35 -42 38 -45 -56 -60 63 0
-40 -34 -41 -35 -53 -38 -45 56 -60 63 0
-40 -34 -41 -35 -53 38 -45 -56 -60 63 0
-40 -34 -41 -35 -53 38 -45 -56 60 -63 0
-33 -34 -41 -42 -53 -38 -45 56 -60 63 0
-33 -34 -41 -42 -53 -38 45 -56 -60 63 0
-33 -34 -41 -42 -53 38 -45 -56 60 -63 0
-33 -34 -41 -42 -53 38 -45 56 -60 -63 0
-33 -40 -41 -35 -57 -38 45 -56 60 -63 0
-33 -40 -41 -35 -57 -38 45 56 -60 -63 0
-33 -40 -41 -35 -57 38 -45 56 -60 -63 0
-33 -40 -34 -42 -57 -38 -45 -56 60 63 0
-33 -40 -34 -42 -57 -38 45 -56 -60 63 0
-33 -40 -34 -42 -57 38 -45 -56 60 -63 0
-33 -40 -34 -42 -57 -38 45 56 -60 -63 0
-33 -40 -34 -42 -57 38 -45 56 -60 -63 0
31 -33 -42 -53 -36 43 -54 -45 -56 -63 -65 0
-46 -34 -52 -35 -48 -36 -49 54 58 -61 0
-46 -34 -52 -35 -48 -36 49 54 -58 -61 0
-33 -47 -52 -35 -48 -36 49 -54 -58 61 0
-33 -47 -52 -35 -48 36 -49 -54 -58 61 0
-33 -47 -52 -35 -48 -36 49 -54 58 -61 0
-33 -47 -52 -35 -48 36 -49 54 -58 -61 0
-46 -34 -47 -35 -53 -36 -49 54 -58 61 0
-46 -34 -47 -35 -53 36 -49 -54 -58 61 0
-32 -47 -52 -35 -53 -36 -49 54 -58 61 0
-32 -47 -52 -35 -53 -36 -49 54 58 -61 0
-32 -47 -52 -35 -53 -36 49 -54 58 -61 0
-32 -47 -52 -35 -53 36 49 -54 -58 -61 0
-33 -34 -47 -48 -53 -36 49 -54 -58 61 0
-33 -34 -47 -48 -53 36 -49 54 -58 -61 0
-32 -34 -52 -48 -53 -36 -49 54 -58 61 0
-32 -34 -52 -48 -53 -36 49 -54 -58 61 0
-32 -34 -52 -48 -53 36 -49 -54 58 -61 0
-32 -34 -52 -48 -53 36 49 -54 -58 -61 0
-33 -46 -47 -35 -57 -36 49 -54 58 -61 0
-33 -46 -47 -35 -57 -36 49 54 -58 -61 0
-32 -46 -52 -35 -57 -36 -49 -54 58 61 0
-32 -46 -52 -35 -57 36 -49 -54 -58 61 0
-32 -46 -52 -35 -57 -36 -49 54 58 -61 0
-32 -46 -52 -35 -57 36 49 -54 -58 -61 0
-33 -46 -34 -48 -57 36 -49 -54 58 -61 0
-32 -33 -52 -48 -57 -36 49 -54 -58 61 0
-32 -46 -34 -53 -57 -36 -49 -54 58 61 0
-32 -46 -34 -53 -57 36 -49 -54 58 -61 0
-32 -46 -34 -53 -57 -36 49 54 -58 -61 0
-32 -33 -47 -53 -57 -36 -49 54 -58 61 0
-32 -33 -47 -53 -57 36 49 -54 -58 -61 0
32 -46 -34 47 52 -53 37 50 -55 62 0
-33 -47 -52 -35 -48 37 -50 55 -59 -62 0
-46 -34 -47 -35 -53 -37 50 -55 59 -62 0
-32 -46 -34 -53 -57 -37 -50 55 -59 62 0
-32 -46 -34 -53 -57 37 50 -55 -59 -62 0
-46 -34 52 48 53 -57 38 51 -60 63 0
-46 47 52 -35 48 -57 38 56 60 -63 0
-33 46 -47 48 -53 57 38 -56 60 63 0
-46 -34 -52 -35 -48 -38 -51 56 60 -63 0
-46 -34 -52 -35 -48 38 -51 -56 60 -63 0
-46 -34 -52 -35 -48 -38 51 56 -60 -63 0
-46 -34 -47 -35 -53 -38 51 -56 60 -63 0
-32 -47 -52 -35 -53 -38 -51 56 60 -63 0
-32 -47 -52 -35 -53 38 51 -56 -60 -63 0
-33 -34 -47 -48 -53 -38 51 -56 -60 63 0
-33 -46 -47 -35 -57 38 -51 -56 -60 63 0
-33 -46 -47 -35 -57 -38 51 -56 60 -63 0
-33 -46 -47 -35 -57 38 -51 56 -60 -63 0
-32 -46 -52 -35 -57 -38 -51 56 60 -63 0
-32 -46 -52 -35 -57 -38 51 56 -60 -63 0
-32 -46 -52 -35 -57 38 51 -56 -60 -63 0
-33 -46 -34 -48 -57 -38 -51 -56 60 63 0
-33 -46 -34 -48 -57 -38 51 -56 -60 63 0
-33 -46 -34 -48 -57 -38 51 56 -60 -63 0
-32 -33 -52 -48 -57 -38 -51 -56 60 63 0
-32 -33 -52 -48 -57 -38 51 -56 -60 63 0
-32 -33 -52 -48 -57 -38 -51 56 60 -63 0
-32 -33 -52 -48 -57 38 -51 56 -60 -63 0
-32 -33 -52 -48 -57 38 51 -56 -60 -63 0
-32 -46 -34 -53 -57 -38 -51 56 -60 63 0
-32 -46 -34 -53 -57 38 -51 -56 60 -63 0
-32 -33 -47 -53 -57 -38 -51 -56 60 63 0
-32 -33 -47 -53 -57 -38 51 -56 60 -63 0
-32 -33 -47 -53 -57 38 -51 56 -60 -63 0
-32 -33 -47 -53 -57 38 51 -56 -60 -63 0
-33 46 -35 -48 -36 -54 -61 -51 56 -63 -65 0
-33 52 -35 -57 54 -58 -61 -38 -56 -63 -65 0
34 -52 -35 -53 -37 -55 -62 38 -56 -60 -66 0
39 -41 -52 42 -48 57 43 49 54 -58 0
46 -41 -47 52 48 -53 43 49 -58 61 0
-46 -41 52 48 53 -57 43 49 -58 61 0
-46 -41 -52 -42 -48 43 -49 -54 -58 61 0
-46 -41 -52 -42 -48 -43 -49 54 58 -61 0
-46 -41 -52 -42 -48 43 -49 -54 58 -61 0
-46 -41 -52 -42 -48 -43 49 54 -58 -61 0
-40 -47 -52 -42 -48 -43 -49 54 58 -61 0
-46 -41 -47 -42 -53 -43 -49 54 -58 61 0
-46 -41 -47 -42 -53 43 -49 -54 -58 61 0
-46 -41 -47 -42 -53 43 -49 -54 58 -61 0
-46 -41 -47 -42 -53 -43 49 54 -58 -61 0
-39 -47 -52 -42 -53 -43 -49 54 -58 61 0
-39 -47 -52 -42 -53 43 -49 -54 -58 61 0
-39 -47 -52 -42 -53 -43 -49 54 58 -61 0
-39 -47 -52 -42 -53 -43 49 -54 58 -61 0
-40 -41 -47 -48 -53 -43 -49 54 -58 61 0
-40 -41 -47 -48 -53 -43 49 -54 58 -61 0
-40 -41 -47 -48 -53 43 -49 54 -58 -61 0
-39 -41 -52 -48 -53 -43 -49 54 -58 61 0
-39 -41 -52 -48 -53 -43 49 -54 -58 61 0
-39 -41 -52 -48 -53 -43 -49 54 58 -61 0
-39 -41 -52 -48 -53 43 -49 -54 58 -61 0
-39 -41 -52 -48 -53 43 49 -54 -58 -61 0
-39 -46 -52 -42 -57 -43 -49 -54 58 61 0
-40 -46 -41 -48 -57 -43 49 -54 -58 61 0
-40 -46 -41 -48 -57 -43 49 54 -58 -61 0
-40 -46 -41 -48 -57 43 -49 54 -58 -61 0
-39 -40 -52 -48 -57 -43 -49 -54 58 61 0
-39 -40 -52 -48 -57 -43 -49 54 58 -61 0
-39 -40 -52 -48 -57 43 -49 54 -58 -61 0
-39 -46 -41 -53 -57 -43 -49 -54 58 61 0
-39 -46 -41 -53 -57 -43 -49 54 -58 61 0
-39 -46 -41 -53 -57 43 -49 -54 58 -61 0
-39 -40 -47 -53 -57 -43 -49 -54 58 61 0
-39 -40 -47 -53 -57 -43 -49 54 -58 61 0
-39 -40 -47 -53 -57 43 -49 54 -58 -61 0
-46 -41 -47 -42 -53 44 -50 -55 59 -62 0
-46 -41 -47 -42 -53 -44 50 55 -59 -62 0
-39 -46 -41 -53 -57 -44 -50 -55 59 62 0
-39 -46 -41 -53 -57 -44 -50 55 -59 62 0
-39 -46 -41 -53 -57 -44 50 55 -59 -62 0
39 -47 -52 -42 48 57 45 51 56 -60 0
40 -41 -47 42 -53 57 45 51 56 -60 0
40 -47 -52 -42 53 57 45 51 56 -60 0
-39 -47 52 48 -53 57 45 -51 56 60 0
-40 47 -52 -48 53 57 45 51 -56 60 0
-39 46 -52 42 48 -53 45 -56 60 63 0
-39 47 -52 42 48 -57 45 56 -60 63 0
-46 -41 -52 -42 -48 -45 51 56 -60 -63 0
-40 -47 -52 -42 -48 -45 51 -56 -60 63 0
-40 -47 -52 -42 -48 45 -51 -56 -60 63 0
-40 -47 -52 -42 -48 -45 -51 56 60 -63 0
-40 -47 -52 -42 -48 -45 51 -56 60 -63 0
-40 -47 -52 -42 -48 45 -51 56 -60 -63 0
-39 -47 -52 -42 -53 -45 -51 56 -60 63 0
-39 -47 -52 -42 -53 45 -51 -56 -60 63 0
-39 -47 -52 -42 -53 -45 -51 56 60 -63 0
-39 -47 -52 -42 -53 45 51 -56 -60 -63 0
-40 -41 -47 -48 -53 -45 51 -56 -60 63 0
-40 -41 -47 -48 -53 -45 51 -56 60 -63 0
-40 -41 -47 -48 -53 45 -51 -56 60 -63 0
-40 -41 -47 -48 -53 45 -51 56 -60 -63 0
-39 -41 -52 -48 -53 -45 -51 56 -60 63 0
-39 -41 -52 -48 -53 -45 -51 56 60 -63 0
-39 -41 -52 -48 -53 45 -51 -56 60 -63 0
-39 -41 -52 -48 -53 45 51 -56 -60 -63 0
-40 -46 -47 -42 -57 -45 -51 -56 60 63 0
-40 -46 -47 -42 -57 45 -51 -56 -60 63 0
-40 -46 -47 -42 -57 -45 51 -56 60 -63 0
-40 -46 -47 -42 -57 -45 51 56 -60 -63 0
-40 -46 -47 -42 -57 45 -51 56 -60 -63 0
-39 -46 -52 -42 -57 -45 -51 -56 60 63 0
-39 -46 -52 -42 -57 45 -51 -56 -60 63 0
-39 -46 -52 -42 -57 -45 -51 56 60 -63 0
-39 -46 -52 -42 -57 -45 51 56 -60 -63 0
-39 -46 -52 -42 -57 45 51 -56 -60 -63 0
-40 -46 -41 -48 -57 -45 51 -56 -60 63 0
-40 -46 -41 -48 -57 45 -51 -56 60 -63 0
-40 -46 -41 -48 -57 45 -51 56 -60 -63 0
-39 -40 -52 -48 -57 -45 -51 -56 60 63 0
-39 -40 -52 -48 -57 45 51 -56 -60 -63 0
-39 -46 -41 -53 -57 -45 -51 -56 60 63 0
-39 -46 -41 -53 -57 -45 -51 56 -60 63 0
-39 -46 -41 -53 -57 45 51 -56 -60 -63 0
-39 -40 -47 52 -43 -49 -54 -51 56 -60 -65 0
40 -52 -42 -57 43 -54 -58 -45 -60 -63 -65 0
-40 -41 -53 57 -44 -55 -62 -45 -60 63 -66 0
-47 -52 48 -53 -49 -54 -58 51 -56 -63 -65 0
-47 52 -48 -53 -49 -58 -61 -56 60 -63 -65 0
12 -13 0
13 -14 0
15 -16 0
16 -17 0
17 -18 0
19 -20 0
20 -21 0
-15 0
