p cnf 36 210
-36 -35 -34 0
-36 -33 -32 0
-36 -30 -29 0
-36 -26 -25 0
-36 -21 -20 0
-36 -15 -14 0
-36 -8 -7 0
-35 -33 -31 0
-35 -30 -28 0
-35 -26 -24 0
-35 -21 -19 0
-35 -15 -13 0
-35 -8 -6 0
-33 -30 -27 0
-33 -26 -23 0
-33 -21 -18 0
-33 -15 -12 0
-33 -8 -5 0
-30 -26 -22 0
-30 -21 -17 0
-30 -15 -11 0
-30 -8 -4 0
-26 -21 -16 0
-26 -15 -10 0
-26 -8 -3 0
-21 -15 -9 0
-21 -8 -2 0
-15 -8 -1 0
-34 -32 -31 0
-34 -29 -28 0
-34 -25 -24 0
-34 -20 -19 0
-34 -14 -13 0
-34 -7 -6 0
-32 -29 -27 0
-32 -25 -23 0
-32 -20 -18 0
-32 -14 -12 0
-32 -7 -5 0
-29 -25 -22 0
-29 -20 -17 0
-29 -14 -11 0
-29 -7 -4 0
-25 -20 -16 0
-25 -14 -10 0
-25 -7 -3 0
-20 -14 -9 0
-20 -7 -2 0
-14 -7 -1 0
-31 -28 -27 0
-31 -24 -23 0
-31 -19 -18 0
-31 -13 -12 0
-31 -6 -5 0
-28 -24 -22 0
-28 -19 -17 0
-28 -13 -11 0
-28 -6 -4 0
-24 -19 -16 0
-24 -13 -10 0
-24 -6 -3 0
-19 -13 -9 0
-19 -6 -2 0
-13 -6 -1 0
-27 -23 -22 0
-27 -18 -17 0
-27 -12 -11 0
-27 -5 -4 0
-23 -18 -16 0
-23 -12 -10 0
-23 -5 -3 0
-18 -12 -9 0
-18 -5 -2 0
-12 -5 -1 0
-22 -17 -16 0
-22 -11 -10 0
-22 -4 -3 0
-17 -11 -9 0
-17 -4 -2 0
-11 -4 -1 0
-16 -10 -9 0
-16 -3 -2 0
-10 -3 -1 0
-9 -2 -1 0
36 35 34 33 32 31 0
36 35 34 30 29 28 0
36 35 34 26 25 24 0
36 35 34 21 20 19 0
36 35 34 15 14 13 0
36 35 34 8 7 6 0
36 33 32 30 29 27 0
36 33 32 26 25 23 0
36 33 32 21 20 18 0
36 33 32 15 14 12 0
36 33 32 8 7 5 0
36 30 29 26 25 22 0
36 30 29 21 20 17 0
36 30 29 15 14 11 0
36 30 29 8 7 4 0
36 26 25 21 20 16 0
36 26 25 15 14 10 0
36 26 25 8 7 3 0
36 21 20 15 14 9 0
36 21 20 8 7 2 0
36 15 14 8 7 1 0
35 33 31 30 28 27 0
35 33 31 26 24 23 0
35 33 31 21 19 18 0
35 33 31 15 13 12 0
35 33 31 8 6 5 0
35 30 28 26 24 22 0
35 30 28 21 19 17 0
35 30 28 15 13 11 0
35 30 28 8 6 4 0
35 26 24 21 19 16 0
35 26 24 15 13 10 0
35 26 24 8 6 3 0
35 21 19 15 13 9 0
35 21 19 8 6 2 0
35 15 13 8 6 1 0
33 30 27 26 23 22 0
33 30 27 21 18 17 0
33 30 27 15 12 11 0
33 30 27 8 5 4 0
33 26 23 21 18 16 0
33 26 23 15 12 10 0
33 26 23 8 5 3 0
33 21 18 15 12 9 0
33 21 18 8 5 2 0
33 15 12 8 5 1 0
30 26 22 21 17 16 0
30 26 22 15 11 10 0
30 26 22 8 4 3 0
30 21 17 15 11 9 0
30 21 17 8 4 2 0
30 15 11 8 4 1 0
26 21 16 15 10 9 0
26 21 16 8 3 2 0
26 15 10 8 3 1 0
21 15 9 8 2 1 0
34 32 31 29 28 27 0
34 32 31 25 24 23 0
34 32 31 20 19 18 0
34 32 31 14 13 12 0
34 32 31 7 6 5 0
34 29 28 25 24 22 0
34 29 28 20 19 17 0
34 29 28 14 13 11 0
34 29 28 7 6 4 0
34 25 24 20 19 16 0
34 25 24 14 13 10 0
34 25 24 7 6 3 0
34 20 19 14 13 9 0
34 20 19 7 6 2 0
34 14 13 7 6 1 0
32 29 27 25 23 22 0
32 29 27 20 18 17 0
32 29 27 14 12 11 0
32 29 27 7 5 4 0
32 25 23 20 18 16 0
32 25 23 14 12 10 0
32 25 23 7 5 3 0
32 20 18 14 12 9 0
32 20 18 7 5 2 0
32 14 12 7 5 1 0
29 25 22 20 17 16 0
29 25 22 14 11 10 0
29 25 22 7 4 3 0
29 20 17 14 11 9 0
29 20 17 7 4 2 0
29 14 11 7 4 1 0
25 20 16 14 10 9 0
25 20 16 7 3 2 0
25 14 10 7 3 1 0
20 14 9 7 2 1 0
31 28 27 24 23 22 0
31 28 27 19 18 17 0
31 28 27 13 12 11 0
31 28 27 6 5 4 0
31 24 23 19 18 16 0
31 24 23 13 12 10 0
31 24 23 6 5 3 0
31 19 18 13 12 9 0
31 19 18 6 5 2 0
31 13 12 6 5 1 0
28 24 22 19 17 16 0
28 24 22 13 11 10 0
28 24 22 6 4 3 0
28 19 17 13 11 9 0
28 19 17 6 4 2 0
28 13 11 6 4 1 0
24 19 16 13 10 9 0
24 19 16 6 3 2 0
24 13 10 6 3 1 0
19 13 9 6 2 1 0
27 23 22 18 17 16 0
27 23 22 12 11 10 0
27 23 22 5 4 3 0
27 18 17 12 11 9 0
27 18 17 5 4 2 0
27 12 11 5 4 1 0
23 18 16 12 10 9 0
23 18 16 5 3 2 0
23 12 10 5 3 1 0
18 12 9 5 2 1 0
22 17 16 11 10 9 0
22 17 16 4 3 2 0
22 11 10 4 3 1 0
17 11 9 4 2 1 0
16 10 9 3 2 1 0
