p cnf 282 59
277 278 279 280 281 282 0
277 278 279 280 281 -282 0
-277 278 279 280 281 282 0
-277 278 279 280 281 -282 0
277 -278 279 280 281 282 0
277 -278 279 280 281 -282 0
-277 -278 279 280 281 282 0
-277 -278 279 280 281 -282 0
277 278 -279 280 281 282 0
277 278 -279 280 281 -282 0
-277 278 -279 280 281 282 0
-277 278 -279 280 281 -282 0
277 -278 -279 280 281 282 0
277 -278 -279 280 281 -282 0
-277 -278 -279 280 281 282 0
-277 -278 -279 280 281 -282 0
277 278 279 -280 281 282 0
277 278 279 -280 281 -282 0
-277 278 279 -280 281 282 0
-277 278 279 -280 281 -282 0
277 -278 279 -280 281 282 0
277 -278 279 -280 281 -282 0
-277 -278 279 -280 281 282 0
-277 -278 279 -280 281 -282 0
277 278 -279 -280 281 282 0
277 278 -279 -280 281 -282 0
-277 278 -279 -280 281 282 0
-277 278 -279 -280 281 -282 0
277 -278 -279 -280 281 282 0
277 -278 -279 -280 281 -282 0
-277 -278 -279 -280 281 282 0
-277 -278 -279 -280 281 -282 0
277 278 279 280 -281 282 0
277 278 279 280 -281 -282 0
-277 278 279 280 -281 282 0
-277 278 279 280 -281 -282 0
277 -278 279 280 -281 282 0
277 -278 279 280 -281 -282 0
-277 -278 279 280 -281 282 0
-277 -278 279 280 -281 -282 0
277 278 -279 280 -281 282 0
277 278 -279 280 -281 -282 0
-277 278 -279 280 -281 282 0
-277 278 -279 280 -281 -282 0
277 -278 -279 280 -281 282 0
277 -278 -279 280 -281 -282 0
-277 -278 -279 280 -281 282 0
-277 -278 -279 280 -281 -282 0
277 278 279 -280 -281 282 0
277 278 279 -280 -281 -282 0
-277 278 279 -280 -281 282 0
-277 278 279 -280 -281 -282 0
277 -278 279 -280 -281 282 0
277 -278 279 -280 -281 -282 0
-277 -278 279 -280 -281 0
277 278 -279 -280 -281 0
-277 278 -279 -280 -281 0
277 -278 -279 -280 -281 0
-277 -278 -279 -280 -281 0
