p cnf 66 7686
-12 -18 -19 -27 -28 -61 0
-12 -18 -20 -27 -29 -62 0
-12 -18 -21 -27 -30 -63 0
-12 -19 -20 -28 -29 -64 0
-12 -19 -21 -28 -30 -65 0
-12 -20 -21 -29 -30 -66 0
-13 -18 -19 -35 -36 -61 0
-13 -18 -20 -35 -37 -62 0
-13 -18 -21 -35 -38 -63 0
-13 -19 -20 -36 -37 -64 0
-13 -19 -21 -36 -38 -65 0
-13 -20 -21 -37 -38 -66 0
14 17 18 41 42 57 0
14 17 19 41 43 58 0
14 17 20 41 44 59 0
14 17 21 41 45 60 0
14 18 19 42 43 61 0
14 18 20 42 44 62 0
14 18 21 42 45 63 0
14 19 20 43 44 64 0
14 19 21 43 45 65 0
14 20 21 44 45 66 0
15 16 18 46 48 53 0
15 16 19 46 49 54 0
15 16 20 46 50 55 0
15 16 21 46 51 56 0
15 18 19 48 49 61 0
15 18 20 48 50 62 0
15 18 21 48 51 63 0
15 19 20 49 50 64 0
15 19 21 49 51 65 0
15 20 21 50 51 66 0
16 17 18 52 53 57 0
16 17 19 52 54 58 0
16 17 20 52 55 59 0
16 17 21 52 56 60 0
16 18 19 53 54 61 0
16 18 20 53 55 62 0
16 18 21 53 56 63 0
16 19 20 54 55 64 0
16 19 21 54 56 65 0
16 20 21 55 56 66 0
17 18 19 57 58 61 0
17 18 20 57 59 62 0
17 18 21 57 60 63 0
17 19 20 58 59 64 0
17 19 21 58 60 65 0
17 20 21 59 60 66 0
-18 -19 -20 -61 -62 -64 0
-18 -19 -21 -61 -63 -65 0
-18 -20 -21 -62 -63 -66 0
-19 -20 -21 -64 -65 -66 0
22 23 24 31 32 39 0
22 23 27 31 35 42 0
22 23 28 31 36 43 0
22 23 29 31 37 44 0
22 23 30 31 38 45 0
22 24 27 32 35 48 0
22 24 28 32 36 49 0
22 24 29 32 37 50 0
22 24 30 32 38 51 0
22 27 28 35 36 61 0
22 27 29 35 37 62 0
22 28 29 36 37 64 0
22 29 30 37 38 66 0
23 26 27 41 42 57 0
23 26 28 41 43 58 0
23 26 29 41 44 59 0
23 26 30 41 45 60 0
23 27 28 42 43 61 0
23 27 29 42 44 62 0
23 28 29 43 44 64 0
23 28 30 43 45 65 0
23 29 30 44 45 66 0
24 27 28 48 49 61 0
24 27 29 48 50 62 0
24 27 30 48 51 63 0
24 28 29 49 50 64 0
24 28 30 49 51 65 0
24 29 30 50 51 66 0
-25 -27 -28 -53 -54 -61 0
-25 -27 -29 -53 -55 -62 0
-25 -27 -30 -53 -56 -63 0
-25 -28 -29 -54 -55 -64 0
-25 -28 -30 -54 -56 -65 0
-25 -29 -30 -55 -56 -66 0
26 27 28 57 58 61 0
26 27 29 57 59 62 0
26 27 30 57 60 63 0
26 28 29 58 59 64 0
26 28 30 58 60 65 0
26 29 30 59 60 66 0
-27 -28 -29 -61 -62 -64 0
-27 -28 -30 -61 -63 -65 0
-27 -29 -30 -62 -63 -66 0
-28 -29 -30 -64 -65 -66 0
31 35 36 42 43 61 0
31 35 37 42 44 62 0
31 35 38 42 45 63 0
31 36 37 43 44 64 0
31 36 38 43 45 65 0
31 37 38 44 45 66 0
32 33 35 46 48 53 0
32 33 36 46 49 54 0
32 33 37 46 50 55 0
32 33 38 46 51 56 0
32 35 36 48 49 61 0
32 35 37 48 50 62 0
32 35 38 48 51 63 0
32 36 37 49 50 64 0
32 36 38 49 51 65 0
32 37 38 50 51 66 0
33 35 36 53 54 61 0
33 35 37 53 55 62 0
33 35 38 53 56 63 0
33 36 37 54 55 64 0
33 36 38 54 56 65 0
33 37 38 55 56 66 0
-34 -35 -36 -57 -58 -61 0
-34 -35 -37 -57 -59 -62 0
-34 -35 -38 -57 -60 -63 0
-34 -36 -37 -58 -59 -64 0
-34 -36 -38 -58 -60 -65 0
-34 -37 -38 -59 -60 -66 0
-35 -36 -38 -61 -63 -65 0
-35 -37 -38 -62 -63 -66 0
-36 -37 -38 -64 -65 -66 0
-39 -42 -43 -48 -49 -61 0
-39 -42 -44 -48 -50 -62 0
-39 -42 -45 -48 -51 -63 0
-39 -43 -44 -49 -50 -64 0
-39 -43 -45 -49 -51 -65 0
-39 -44 -45 -50 -51 -66 0
-40 -42 -43 -53 -54 -61 0
-40 -42 -44 -53 -55 -62 0
-40 -42 -45 -53 -56 -63 0
-40 -43 -44 -54 -55 -64 0
-40 -43 -45 -54 -56 -65 0
-40 -44 -45 -55 -56 -66 0
41 42 43 57 58 61 0
41 42 44 57 59 62 0
41 42 45 57 60 63 0
41 43 44 58 59 64 0
41 43 45 58 60 65 0
41 44 45 59 60 66 0
-42 -43 -44 -61 -62 -64 0
-42 -43 -45 -61 -63 -65 0
-42 -44 -45 -62 -63 -66 0
-43 -44 -45 -64 -65 -66 0
46 48 49 53 54 61 0
46 48 50 53 55 62 0
46 49 50 54 55 64 0
46 49 51 54 56 65 0
46 50 51 55 56 66 0
-47 -48 -49 -57 -58 -61 0
-47 -48 -50 -57 -59 -62 0
-47 -48 -51 -57 -60 -63 0
-47 -49 -50 -58 -59 -64 0
-47 -49 -51 -58 -60 -65 0
-47 -50 -51 -59 -60 -66 0
-48 -49 -50 -61 -62 -64 0
-48 -49 -51 -61 -63 -65 0
-48 -50 -51 -62 -63 -66 0
-49 -50 -51 -64 -65 -66 0
52 53 54 57 58 61 0
52 53 55 57 59 62 0
52 53 56 57 60 63 0
52 54 55 58 59 64 0
52 54 56 58 60 65 0
52 55 56 59 60 66 0
-53 -54 -56 -61 -63 -65 0
-53 -55 -56 -62 -63 -66 0
-54 -55 -56 -64 -65 -66 0
-57 -58 -59 -61 -62 -64 0
-57 -58 -60 -61 -63 -65 0
-57 -59 -60 -62 -63 -66 0
-58 -59 -60 -64 -65 -66 0
-12 -13 -22 0
-39 -40 -46 0
61 62 64 0
61 63 65 0
62 63 66 0
64 65 66 0
-12 -13 22 23 31 15 24 -39 -18 27 -35 -42 48 -19 28 49 0
-12 -13 22 23 31 15 32 -39 -18 27 -35 -42 -48 -19 28 -61 0
-12 -13 22 14 23 24 32 -39 -18 -27 35 -42 -48 -19 36 -61 0
-12 -13 22 23 31 15 32 -39 -18 27 -19 28 -36 -43 -49 -61 0
-12 -13 22 23 31 15 24 -39 -18 35 -19 -28 36 -43 -49 -61 0
-12 -13 22 14 23 15 24 32 27 -35 -42 -48 -19 28 -36 -43 -61 0
-12 -13 22 14 23 31 15 32 -27 35 -42 -48 -19 -28 36 -49 -61 0
-12 -13 22 23 31 15 32 -39 -18 27 -35 -42 -48 -20 29 -62 0
-12 -13 22 23 15 24 32 -39 -18 27 42 -20 29 -44 50 -62 0
-12 -13 22 23 31 15 32 -39 -18 27 -20 29 -37 -44 -50 -62 0
-12 -13 22 14 23 24 32 -39 -18 35 -20 -29 37 -44 -50 -62 0
-12 -13 22 14 23 15 24 32 27 -35 -42 -48 -20 29 -37 -44 -62 0
-12 -13 22 14 31 15 24 32 -27 35 -42 -48 -20 -29 37 -44 -62 0
22 14 23 15 32 18 -27 35 -42 48 21 30 38 45 51 0
-12 -13 22 23 31 15 32 -39 -18 27 -35 -42 -48 -21 30 -63 0
-12 -13 22 23 31 15 24 -39 -18 -27 35 -42 -48 -21 38 -63 0
-12 -13 22 14 23 24 32 -39 -18 -27 35 -42 -48 -21 38 -63 0
-12 -13 22 14 23 24 32 -39 -18 35 -21 -30 38 -45 -51 -63 0
-12 -13 22 14 23 15 24 32 -18 27 -35 -42 30 -38 -45 -51 -63 0
-12 -13 22 14 31 24 32 -39 -19 -28 36 43 -49 -20 37 44 0
-12 -13 22 14 23 24 32 -39 -19 28 43 -20 29 -37 44 -50 0
-12 -13 22 23 31 15 32 -39 -19 36 49 -20 -29 37 -44 50 0
-12 -13 22 23 31 15 32 -39 -19 28 -36 -43 -49 -20 29 -64 0
-12 -13 22 23 31 15 32 -39 -19 28 -20 29 -37 -44 -50 -64 0
-12 -13 22 23 31 15 24 -39 -19 36 -20 -29 37 -44 -50 -64 0
-12 -13 22 14 23 24 32 -39 -19 36 -20 -29 37 -44 -50 -64 0
-12 -13 22 14 23 15 24 32 28 -36 -43 -49 -20 29 -37 -44 -64 0
-12 -13 22 14 31 15 24 32 -28 36 -43 -49 -20 -29 37 -44 -64 0
-12 -13 22 14 23 31 15 32 -28 36 -43 -49 -20 -29 37 -50 -64 0
-12 -13 22 14 23 31 15 24 -19 28 -36 -49 29 -37 -44 -50 -64 0
22 14 23 15 32 19 -28 36 -43 49 21 30 38 45 51 0
-12 -13 22 14 23 24 32 -39 -19 28 -36 43 -49 -21 30 45 0
-12 -13 22 23 31 15 24 -39 -19 28 -36 -43 49 -21 30 51 0
-12 -13 22 23 31 15 32 -39 -19 28 -36 -43 -49 -21 30 -65 0
-12 -13 22 14 23 24 32 -39 -19 -28 36 -43 -49 -21 38 -65 0
-12 -13 22 23 31 15 24 -39 -19 36 -21 -30 38 -45 -51 -65 0
-12 -13 22 14 23 24 32 -39 -19 36 -21 -30 38 -45 -51 -65 0
-12 -13 22 14 23 31 15 24 28 -36 -43 -49 -21 30 -38 -51 -65 0
-12 -13 22 14 23 15 24 32 -19 28 -36 -43 30 -38 -45 -51 -65 0
22 14 23 15 32 20 -29 37 -44 50 21 30 38 45 51 0
-12 -13 22 14 23 24 32 -39 -20 29 -37 44 -50 -21 30 45 0
-12 -13 22 23 31 15 32 -39 -20 29 -37 -44 -50 -21 30 -66 0
-12 -13 22 14 23 24 32 -39 -20 37 -21 -30 38 -45 -51 -66 0
-12 -13 22 14 23 31 15 24 29 -37 -44 -50 -21 30 -38 -51 -66 0
-12 -13 22 14 23 15 24 32 -20 29 -37 -44 30 -38 -45 -51 -66 0
-12 -13 22 14 23 31 -25 33 -40 -18 -27 35 53 -19 36 43 0
-12 -13 22 14 23 31 -25 33 -40 -18 35 42 -19 -28 36 54 0
-12 -13 22 14 23 31 -25 33 -40 35 42 -53 19 -28 43 -54 0
-12 -13 22 14 23 31 -25 33 -40 18 -27 42 -53 36 43 -54 0
-13 22 14 23 31 16 -25 -40 18 42 -53 19 -28 -36 43 -54 0
-12 -13 22 14 31 -25 33 -40 -18 -27 35 -42 -53 19 28 36 -54 0
-12 -13 14 23 31 -25 33 -40 -18 -27 -35 42 -53 -19 28 43 54 0
-12 -13 14 23 31 -25 33 -40 -18 -27 35 42 -53 -19 -28 43 54 0
-12 -13 22 14 31 -25 33 -40 18 27 35 -53 -19 -28 36 -43 -54 0
-12 -13 14 23 31 -25 33 -40 -18 -27 42 53 -19 -28 36 43 -54 0
-12 -13 14 23 31 -25 33 -40 -18 27 42 53 -19 -28 -36 43 -54 0
-12 14 23 31 16 -25 33 -40 -27 35 42 -53 -19 -28 -36 43 -61 0
-12 -13 22 14 23 31 -25 33 -40 -18 -27 35 -53 19 36 -54 -61 0
-12 -13 22 14 23 31 -25 33 -40 18 35 -53 -19 -28 36 -54 -61 0
-12 -13 22 14 23 31 -25 33 -40 -18 42 53 -19 -28 43 -54 -61 0
-12 -13 22 14 23 31 -25 33 -40 -18 -27 35 53 -20 37 44 0
-12 -13 22 14 23 31 -25 33 -40 -18 35 42 -20 -29 37 55 0
-12 -13 22 14 23 31 -25 33 -40 35 42 -53 20 -29 44 -55 0
-12 -13 22 14 23 31 -25 33 -40 18 -27 42 -53 37 44 -55 0
-13 22 14 23 31 16 -25 -40 18 42 -53 20 -29 -37 44 -55 0
-13 22 14 23 31 16 -25 -40 27 -53 -20 29 -37 -44 -55 -62 0
22 14 23 31 -25 33 -18 -35 -42 53 -20 -29 -37 44 -55 -62 0
-12 -13 22 14 31 -25 33 -40 -18 -27 35 -42 -53 20 29 37 -55 0
-12 -13 22 14 31 -25 33 -40 -18 -27 35 42 -53 20 -29 37 -55 0
-12 -13 14 23 31 -25 33 -40 -18 -27 -35 42 -53 -20 29 44 55 0
-12 -13 14 23 31 -25 33 -40 -18 -27 35 42 -53 -20 -29 44 55 0
-12 -13 22 14 31 -25 33 -40 18 -27 35 -53 -20 -29 37 44 -55 0
-12 -13 22 14 31 -25 33 -40 18 27 35 -53 -20 -29 37 -44 -55 0
-12 -13 14 23 31 -25 33 -40 -18 -27 42 53 -20 -29 37 44 -55 0
-12 -13 14 23 31 -25 33 -40 -18 27 42 53 -20 -29 -37 44 -55 0
-12 -13 22 14 31 16 -25 33 -27 35 -42 -53 -20 -29 37 44 -62 0
-12 14 23 31 16 -25 33 -40 -27 35 42 -53 -20 -29 -37 44 -62 0
-12 -13 22 14 23 31 -25 33 -40 -18 -27 42 -53 -20 44 55 -62 0
-12 -13 22 14 23 31 -25 33 -40 -18 42 53 -20 -29 44 -55 -62 0
-12 -13 22 14 23 31 -25 33 -40 -18 -27 35 53 -21 38 45 0
-12 -13 22 14 23 31 -25 33 -40 35 42 -53 21 -30 45 -56 0
-12 -13 22 14 23 31 -25 33 -40 18 -27 42 -53 38 45 -56 0
-12 -13 22 14 23 31 33 -40 -18 35 42 -53 -21 38 56 -63 0
-13 22 14 23 31 -25 33 -40 18 42 -53 -21 38 45 -56 -63 0
-12 -13 22 14 31 -25 33 -40 18 27 35 -53 -21 -30 38 -45 -56 0
-12 -13 22 14 23 31 -25 33 -40 -18 -27 35 -53 21 38 -56 -63 0
-12 -13 22 14 23 31 -25 33 -40 -18 -27 42 -53 -21 45 56 -63 0
-12 -13 22 14 23 31 -25 33 -40 -19 -28 36 54 -20 37 44 0
-12 -13 22 14 23 31 -25 33 -40 -19 36 43 -20 -29 37 55 0
-12 -13 22 14 23 31 -25 33 -40 36 43 -54 20 -29 44 -55 0
-12 -13 22 14 23 31 -25 33 -40 19 -28 43 -54 37 44 -55 0
-12 -13 22 23 31 16 33 -40 -19 28 -36 -43 -54 -20 29 -64 0
-13 22 14 23 31 16 -25 -40 -19 28 -36 -43 -54 29 -55 -64 0
-12 -13 22 23 31 16 33 -40 -19 28 -20 29 -37 -44 -55 -64 0
-13 22 14 23 31 16 -25 -40 28 -54 -20 29 -37 -44 -55 -64 0
-13 14 31 -25 33 -40 19 28 43 -54 -20 -29 -37 -44 -55 64 0
-12 -13 22 14 31 -25 33 -40 -19 -28 36 -43 -54 20 29 37 -55 0
-12 -13 22 14 31 -25 33 -40 -19 -28 36 43 -54 20 -29 37 -55 0
-12 -13 14 23 31 -25 33 -40 -19 -28 -36 43 -54 -20 29 44 55 0
-12 -13 14 23 31 -25 33 -40 -19 -28 36 43 -54 -20 -29 44 55 0
-12 -13 22 14 31 -25 33 -40 19 -28 36 -54 -20 -29 37 44 -55 0
-12 -13 22 14 31 -25 33 -40 19 28 36 -54 -20 -29 37 -44 -55 0
-12 -13 14 23 31 -25 33 -40 -19 -28 43 54 -20 -29 37 44 -55 0
-12 -13 14 23 31 -25 33 -40 -19 28 43 54 -20 -29 -37 44 -55 0
-12 -13 22 14 31 16 -25 33 -28 36 -43 -54 -20 -29 37 44 -64 0
-12 14 23 31 16 -25 33 -40 -28 36 43 -54 -20 -29 -37 44 -64 0
-12 -13 22 14 23 31 -25 33 -40 -19 -28 36 -54 20 37 -55 -64 0
-12 -13 22 14 23 31 -25 33 -40 19 36 -54 -20 -29 37 -55 -64 0
-12 -13 22 14 23 31 -25 33 -40 -19 -28 43 -54 -20 44 55 -64 0
-12 -13 22 14 23 31 -25 33 -40 -19 43 54 -20 -29 44 -55 -64 0
-12 -13 22 14 31 16 -25 33 -19 -28 36 43 -29 37 -44 -55 -64 0
-12 -13 22 14 23 31 -25 33 -40 -19 36 43 -21 -30 38 56 0
-13 22 14 23 31 16 -25 -40 19 -28 -36 43 -54 21 45 -56 0
-12 -13 22 14 23 31 -25 33 -40 36 43 -54 21 -30 45 -56 0
-12 -13 22 14 23 31 -25 33 -40 19 -28 43 -54 38 45 -56 0
-13 22 14 23 31 16 -25 -40 -19 28 -36 -43 -54 30 -56 -65 0
-13 14 31 -25 33 -40 -19 -28 -36 -43 -54 21 30 45 -56 65 0
-12 -13 22 14 23 31 -25 33 -40 -19 -28 36 -54 21 38 -56 -65 0
-12 -13 22 14 23 31 -25 33 -40 19 36 -54 -21 -30 38 -56 -65 0
-12 -13 22 14 23 31 -25 33 -40 -19 -28 43 -54 -21 45 56 -65 0
-12 -13 22 14 23 31 -25 33 -40 -19 43 54 -21 -30 45 -56 -65 0
-12 -13 22 14 23 31 -25 33 -40 -20 -29 37 55 -21 38 45 0
-12 -13 22 14 23 31 -25 33 -40 -20 37 44 -21 -30 38 56 0
-13 22 14 23 31 16 -25 -40 20 -29 -37 44 -55 21 45 -56 0
-12 -13 22 14 23 31 -25 33 -40 20 -29 44 -55 38 45 -56 0
-12 -13 22 23 31 16 33 -40 -20 29 -37 -44 -55 -21 30 -66 0
-13 22 14 23 31 16 -25 -40 -20 29 -37 -44 -55 30 -56 -66 0
-12 -13 22 14 31 -25 33 -40 -20 -29 37 -44 -55 21 30 38 -56 0
-12 -13 22 14 31 -25 33 -40 -20 -29 37 44 -55 21 -30 38 -56 0
-12 -13 14 23 31 -25 33 -40 -20 -29 44 55 -21 -30 38 45 -56 0
-12 14 23 31 16 -25 33 -40 -29 37 44 -55 -21 -30 -38 45 -66 0
-12 -13 22 14 23 31 -25 33 -40 -20 -29 37 -55 21 38 -56 -66 0
-12 -13 22 14 23 31 -25 33 -40 20 37 -55 -21 -30 38 -56 -66 0
-12 -13 22 14 23 31 -25 33 -40 -20 -29 44 -55 -21 45 56 -66 0
-12 -13 22 14 23 31 -25 33 -40 -20 44 55 -21 -30 45 -56 -66 0
22 14 23 31 17 26 41 18 -27 35 -57 19 36 43 61 0
22 14 23 31 17 26 41 -18 27 35 57 19 36 43 -61 0
22 14 23 31 17 26 41 18 35 42 19 -28 36 -58 61 0
-13 22 14 23 31 26 41 -18 27 -35 -42 -57 19 -28 -36 43 0
-13 14 23 31 17 26 41 -18 -27 -35 -42 57 -19 36 43 -58 0
-13 22 14 23 31 26 41 18 -27 -35 42 -19 28 -36 -43 -58 0
-13 14 23 31 17 26 41 -18 35 42 -57 -19 -28 -36 -43 58 0
-12 -13 22 14 23 31 17 -34 41 27 -35 -42 -57 28 43 -61 0
-12 -13 22 14 23 31 17 -34 41 -18 -27 -42 57 43 58 -61 0
-12 -13 22 14 23 31 17 -34 41 42 57 -19 -28 -43 58 -61 0
22 14 23 31 17 -34 41 -27 -35 42 57 -19 -28 -43 58 -61 0
-12 -13 14 23 31 26 41 -18 -27 -35 42 -57 -19 -28 36 -43 58 0
-12 -13 14 23 31 26 41 -18 -27 35 -42 57 -19 -28 -36 43 -58 0
-13 14 23 31 26 -34 41 18 27 -35 -42 -57 -19 -28 -36 43 -58 0
-13 14 23 31 26 -34 41 -18 -27 -35 42 -57 19 28 -36 -43 -58 0
-13 22 14 23 31 17 26 41 18 -27 -35 -42 -57 -19 28 -58 -61 0
-12 -13 22 23 31 17 26 41 -18 -27 35 -42 -57 -36 43 58 -61 0
22 14 23 31 17 26 41 18 -27 35 -57 20 37 44 62 0
22 14 23 31 17 26 41 18 35 42 20 -29 37 -59 62 0
22 14 23 31 17 26 41 18 35 42 -20 29 37 59 -62 0
-13 22 14 23 31 26 41 -18 27 -35 -42 -57 20 -29 -37 44 0
-13 14 23 31 17 26 41 -18 -27 -35 -42 57 -20 37 44 -59 0
-13 22 14 23 31 26 41 18 -27 -35 42 -20 29 -37 -44 -59 0
-13 14 23 31 17 26 41 -18 35 42 -57 -20 -29 -37 -44 59 0
-12 -13 22 14 23 31 17 -34 41 27 -35 -42 -57 29 44 -62 0
-12 -13 22 14 23 31 17 -34 41 -18 -27 -42 57 44 59 -62 0
-12 -13 22 14 23 31 17 -34 41 42 57 -20 -29 -44 59 -62 0
-12 14 31 17 26 41 -18 -27 -35 42 -57 29 -37 -44 -59 -62 0
-12 -13 14 23 31 26 41 -18 -27 -35 42 -57 -20 -29 37 -44 59 0
-12 -13 14 23 31 26 41 -18 -27 35 -42 57 -20 -29 -37 44 -59 0
-13 14 23 31 26 -34 41 18 27 -35 -42 -57 -20 -29 -37 44 -59 0
-13 14 23 31 26 -34 41 -18 -27 -35 42 -57 20 29 -37 -44 -59 0
-13 22 14 23 31 17 26 41 -18 -27 35 -42 -57 -29 -37 59 -62 0
-12 -13 22 14 23 17 26 -34 -18 27 -35 42 29 -37 -44 -59 -62 0
-12 -13 22 14 23 31 17 -34 41 27 -35 -42 -57 30 45 -63 0
-12 -13 22 14 23 31 17 -34 41 -18 -27 -42 57 45 60 -63 0
-12 -13 22 14 23 31 17 -34 41 42 57 -21 -30 -45 60 -63 0
-13 22 14 23 17 26 -34 41 18 -27 -35 -42 -57 -21 30 45 -63 0
-12 -13 22 31 17 26 -34 41 -18 -35 42 57 -21 -30 -45 60 -63 0
22 14 23 31 17 26 41 -19 28 36 58 20 37 44 -64 0
22 14 23 31 17 26 41 19 36 43 20 -29 -37 59 64 0
22 14 23 31 17 26 41 19 36 43 20 -29 37 -59 64 0
-13 22 14 23 31 26 41 -19 28 -36 -43 -58 20 -29 -37 44 0
-13 14 23 31 17 26 41 -19 -28 -36 -43 58 -20 37 44 -59 0
-13 22 14 23 31 26 41 19 -28 -36 43 -20 29 -37 -44 -59 0
-13 14 23 31 17 26 41 -19 36 43 -58 -20 -29 -37 -44 59 0
-12 -13 22 14 23 31 17 -34 41 -19 -28 -43 58 44 59 -64 0
-12 -13 22 14 23 31 17 -34 41 43 58 -20 -29 -44 59 -64 0
-12 -13 22 14 23 31 17 -34 41 28 43 29 -37 -44 -59 -64 0
-12 22 14 23 31 17 41 -19 28 43 -58 29 -37 -44 -59 -64 0
22 14 23 31 26 -34 -19 -28 -43 58 -20 -29 -37 44 -59 -64 0
-12 -13 14 23 31 26 41 -19 -28 -36 43 -58 -20 -29 37 -44 59 0
-12 -13 14 23 31 26 41 -19 -28 36 -43 58 -20 -29 -37 44 -59 0
-13 14 23 31 26 -34 41 19 28 -36 -43 -58 -20 -29 -37 44 -59 0
-13 14 23 31 26 -34 41 -19 -28 -36 43 -58 20 29 -37 -44 -59 0
-12 -13 22 14 23 31 17 26 -19 28 -36 -58 29 -37 -44 -59 -64 0
22 14 23 31 17 26 41 19 36 43 -21 30 38 60 -65 0
-13 22 14 23 31 26 41 19 -28 -36 43 -21 30 -38 -45 -60 0
-13 14 23 31 17 26 41 -19 36 43 -58 -21 -30 -38 -45 60 0
-12 -13 22 14 23 31 17 -34 41 28 -36 -43 -58 30 45 -65 0
-12 -13 22 14 23 31 17 -34 41 -19 -28 -43 58 45 60 -65 0
-12 -13 22 14 23 31 17 -34 41 43 58 -21 -30 -45 60 -65 0
-12 -13 22 14 23 31 17 -34 41 28 43 30 -38 -45 -60 -65 0
22 14 23 31 17 26 41 20 37 44 21 -30 38 -60 66 0
-13 14 23 31 17 26 41 -20 -29 -37 -44 59 -21 38 45 -60 0
-13 14 23 31 17 26 41 -20 37 44 -59 -21 -30 -38 -45 60 0
-12 -13 22 14 23 31 17 -34 41 29 -37 -44 -59 30 45 -66 0
-12 -13 22 14 23 31 17 -34 41 44 59 -21 -30 -45 60 -66 0
-12 -13 22 14 23 31 17 -34 41 29 44 30 -38 -45 -60 -66 0
-13 14 31 17 26 41 -29 37 -44 -59 -21 -30 -38 -45 60 -66 0
-12 -13 14 23 31 26 41 -20 -29 37 -44 59 -21 -30 -38 45 -60 0
-13 14 23 31 26 -34 41 20 29 -37 -44 -59 -21 -30 -38 45 -60 0
-13 14 23 31 26 -34 41 -20 -29 -37 44 -59 21 30 -38 -45 -60 0
-12 -13 22 23 31 17 26 41 -20 -29 37 -44 -59 -38 45 60 -66 0
-13 22 14 23 17 26 -34 41 -20 29 44 21 -30 -38 -45 -60 -66 0
-12 -13 22 23 31 17 26 41 -37 44 59 -21 -30 38 -45 -60 -66 0
-12 -13 22 14 31 -18 27 -35 -42 -19 43 -61 -20 -29 37 44 0
-12 -13 22 14 23 31 -18 -35 -42 -19 -28 36 61 -20 44 -62 0
-12 -13 22 14 23 31 -18 -27 35 -19 36 43 -29 37 -44 62 0
-12 -13 22 14 23 31 -18 42 -19 -36 -43 -61 -20 -29 37 64 0
-12 -13 22 14 23 31 -18 -27 35 -19 -36 -43 61 -20 44 -64 0
-13 22 14 23 31 18 -27 -35 42 -19 28 -36 -43 29 44 -64 0
-12 -13 22 14 31 -18 -27 35 42 -19 43 -20 29 -37 -44 -64 0
-12 -13 22 14 23 31 -18 -35 -42 19 -28 43 61 44 -62 64 0
-12 -13 22 14 23 31 -18 -27 -42 19 -36 43 61 44 -62 64 0
-12 -13 22 14 23 31 -18 27 -35 -19 43 -20 -29 -44 62 -64 0
-12 -13 22 14 23 31 18 -35 42 43 61 -20 -29 -44 62 -64 0
-12 -13 22 14 23 31 42 -19 -36 -43 -61 20 -29 44 62 64 0
-12 -13 22 14 23 31 -18 42 -19 -28 36 -20 -37 -44 -62 64 0
-12 -13 22 14 23 31 -18 -27 35 -19 43 -20 -37 -44 62 -64 0
-12 -13 22 14 23 31 -18 -27 -42 43 -61 20 -37 44 62 64 0
-12 -13 22 14 23 31 42 -19 -28 -43 -61 20 -37 44 62 64 0
-12 -13 22 14 23 31 42 19 -28 43 61 -20 -37 -44 -62 64 0
-12 14 23 31 -18 -27 -35 42 -28 36 43 -61 20 -29 37 -44 -64 0
-12 -13 22 23 31 -18 -27 35 -42 -36 43 -61 20 29 44 -62 64 0
-12 -13 22 23 31 18 27 42 -19 -28 36 -43 -61 -37 44 62 -64 0
-12 22 14 23 31 -27 -35 -19 28 -36 -43 -61 20 37 44 62 -64 0
-12 -13 22 14 23 31 -18 -35 42 -19 43 -61 29 -37 -44 -62 64 0
-12 22 14 23 31 -27 -35 19 36 43 61 -20 29 -37 -44 -62 -64 0
-12 -13 22 14 31 -18 42 -19 28 -36 -43 -61 -21 -30 38 45 0
-12 -13 22 14 31 -18 27 -35 -42 -19 -28 36 43 -21 45 -63 0
-12 -13 22 14 23 31 -18 -27 -42 -19 28 -36 61 -21 45 -63 0
-12 -13 22 14 23 31 -18 -35 -42 -19 -28 36 61 -21 45 -63 0
-12 22 14 23 31 -18 -27 35 -42 19 -28 -36 43 38 45 -63 0
-12 -13 22 14 23 31 -18 27 -35 -19 -28 -43 61 -21 45 -65 0
-12 -13 22 14 23 31 -18 -27 35 -19 -36 -43 61 -21 45 -65 0
-12 -13 22 14 23 31 35 42 -28 36 -43 -61 21 -30 45 -65 0
-12 -13 14 23 31 -18 27 42 -19 -28 -36 -43 -21 30 -63 65 0
-12 22 14 23 31 -18 -27 35 -42 19 -36 -43 -61 38 -63 -65 0
-12 22 14 23 31 18 -35 -42 -19 -28 36 -43 -61 38 -63 -65 0
-12 -13 22 14 23 31 -18 -35 -42 19 -28 43 61 45 -63 65 0
-12 -13 22 14 23 31 18 -35 42 -19 -28 -43 61 45 63 -65 0
-12 -13 22 14 23 31 -18 -27 -42 19 -36 43 61 45 -63 65 0
-12 -13 22 14 23 31 18 -27 42 -19 -36 -43 61 45 63 -65 0
-12 22 14 23 31 -18 -27 35 -42 36 -61 21 -38 -45 -63 -65 0
-12 -13 22 14 23 31 42 19 -28 43 61 -21 -38 -45 -63 65 0
-12 -13 22 23 31 -18 27 -35 -42 19 36 43 -61 -30 45 -63 65 0
-12 -13 22 14 31 -27 42 -19 28 -36 -43 -61 30 38 45 63 -65 0
-12 22 14 23 31 18 35 42 -28 -36 61 -21 30 -38 -45 -63 -65 0
-12 22 14 23 31 35 42 -20 -29 37 -44 -62 21 -30 -38 45 0
-12 -13 22 14 23 31 -18 -27 -42 -20 29 -37 62 -21 45 -63 0
-12 -13 22 14 23 31 -18 -35 -42 -20 -29 37 62 -21 45 -63 0
-12 -13 14 23 31 -18 27 -20 -29 -37 -44 62 -21 30 45 -63 0
-12 -13 22 14 31 -18 42 -20 -29 37 44 -21 30 -38 -45 -63 0
-12 -13 22 14 31 -18 -27 35 42 -20 29 -37 -44 -21 45 -66 0
-12 -13 22 14 23 31 -18 -27 35 -20 -37 -44 62 -21 45 -66 0
-12 -13 22 14 23 31 18 -35 42 29 -37 -44 -62 30 45 -66 0
-12 -13 22 14 31 -18 -27 35 42 -20 44 -21 30 -38 -45 -66 0
-12 22 14 23 31 -18 -27 35 -42 20 -37 -44 -62 38 -63 -66 0
-12 -13 22 14 23 31 -18 -35 -42 20 -29 44 62 45 -63 66 0
-12 -13 22 14 23 31 18 -35 42 -20 -29 -44 62 45 63 -66 0
-12 -13 22 14 23 31 -18 -27 -42 20 -37 44 62 45 -63 66 0
-12 -13 22 14 23 31 18 -27 42 -20 -37 -44 62 45 63 -66 0
-12 -13 22 14 23 31 42 -20 -29 -44 -62 21 -38 45 63 66 0
-12 22 14 23 31 35 20 -37 -44 -62 -21 -30 38 -45 -63 -66 0
-12 22 14 23 -18 -35 -42 20 -29 37 44 62 -21 -30 -38 -63 66 0
-12 -13 22 23 31 18 35 42 -20 29 -37 -44 -62 -30 45 63 -66 0
-12 -13 22 14 23 31 -18 -27 42 -20 44 -62 -30 38 -45 -63 66 0
-12 -13 22 14 31 -19 43 -20 29 -37 -44 -64 -21 -30 38 45 0
-12 -13 22 23 31 19 28 -43 -20 29 -37 -44 64 -21 30 65 0
-12 -13 22 23 31 -19 -28 36 -43 20 29 -44 -64 -21 38 -65 0
-12 -13 22 14 23 31 -19 43 -20 -37 -44 -64 -21 -30 38 66 0
-12 -13 22 14 23 31 19 -28 43 -29 37 -44 -64 38 45 -66 0
-12 22 14 23 31 19 -36 -43 -20 -29 37 -44 -64 38 -65 -66 0
-12 -13 22 14 23 31 -19 -36 -43 20 -29 44 64 45 -65 66 0
-12 -13 22 14 23 31 19 -36 43 -20 -29 -44 64 45 65 -66 0
-12 -13 22 14 23 31 -19 -28 -43 20 -37 44 64 45 -65 66 0
-12 -13 22 14 23 31 19 -28 43 -20 -37 -44 64 45 65 -66 0
-12 -13 22 14 23 31 43 -20 -37 -44 -64 21 -30 45 65 66 0
-12 -13 22 14 23 31 -19 -28 36 -20 44 -21 -38 -45 65 -66 0
-12 -13 22 14 23 31 19 -28 43 44 64 -21 -38 -45 65 -66 0
-12 22 14 23 31 36 -20 -29 37 -44 -64 21 -38 -45 -65 -66 0
-12 -13 22 23 -19 28 43 20 -44 64 -21 30 -38 -45 -65 -66 0
-12 22 14 23 31 36 20 -37 -44 -64 -21 -30 38 -45 -65 -66 0
-13 22 14 23 31 -19 -28 36 -43 20 29 44 -64 -30 -38 -65 66 0
-12 22 14 23 31 -19 28 -36 -43 20 37 44 -64 -30 -38 -65 66 0
-13 22 14 31 -19 -28 -43 20 29 -37 44 64 -21 -30 -38 -65 66 0
-12 -13 22 23 -19 -36 -43 20 -29 37 44 64 -21 -30 45 -65 66 0
-12 -13 14 23 31 -19 -28 43 -20 -29 37 44 -30 38 -45 65 -66 0
-12 22 15 24 32 33 46 -18 -27 35 -48 -53 19 -28 -36 49 0
-12 15 24 32 16 33 46 -18 -27 -35 -48 53 -19 28 49 -54 0
-12 22 15 24 32 33 46 18 -27 -35 48 -19 -28 36 -49 -54 0
-12 15 24 32 16 33 46 -18 27 48 -53 -19 -28 -36 -49 54 0
-12 -13 22 15 24 32 16 -25 46 -27 35 -48 -53 36 49 -61 0
-12 -13 22 15 24 32 16 -25 46 -18 -35 -48 53 49 54 -61 0
-12 -13 22 15 24 32 16 -25 46 48 53 -19 -36 -49 54 -61 0
-12 -13 22 15 24 32 16 -25 46 35 48 -28 36 -49 -54 -61 0
-12 -13 15 24 32 33 46 -18 -27 -35 48 -53 -19 28 -36 -49 54 0
-12 -13 15 24 32 33 46 -18 27 -35 -48 53 -19 -28 -36 49 -54 0
-12 15 24 32 -25 33 46 18 -27 35 -48 -53 -19 -28 -36 49 -54 0
-12 15 24 32 -25 33 46 -18 -27 -35 48 -53 19 -28 36 -49 -54 0
-12 -13 22 24 16 -25 33 46 -18 -35 -48 53 -19 -28 49 54 -61 0
22 15 24 32 16 33 46 18 27 -35 -53 20 29 50 62 0
-12 15 24 32 16 33 46 -18 -27 -35 -48 53 -20 29 50 -55 0
-12 -13 22 15 24 32 16 -25 46 -27 35 -48 -53 37 50 -62 0
-12 -13 22 15 24 32 16 -25 46 -18 -35 -48 53 50 55 -62 0
-12 -13 22 15 24 32 16 -25 46 48 53 -20 -37 -50 55 -62 0
22 15 24 32 16 -25 46 -27 -35 48 53 -20 -37 -50 55 -62 0
-12 -13 22 15 24 32 16 -25 46 35 48 -29 37 -50 -55 -62 0
-12 15 24 16 33 46 -18 -27 -35 -48 53 29 -37 -50 -55 -62 0
-12 -13 15 24 32 33 46 -18 -27 -35 48 -53 -20 29 -37 -50 55 0
-12 -13 15 24 32 33 46 -18 27 -35 -48 53 -20 -29 -37 50 -55 0
-12 15 24 32 -25 33 46 18 -27 35 -48 -53 -20 -29 -37 50 -55 0
-12 15 24 32 -25 33 46 -18 -27 -35 48 -53 20 -29 37 -50 -55 0
-12 -13 22 15 24 32 16 33 -18 -27 35 -53 -29 37 -50 -55 -62 0
22 15 24 32 16 33 46 18 27 -35 -53 21 30 51 63 0
22 15 24 32 16 33 46 18 27 48 21 -30 38 56 -63 0
-12 -13 22 15 24 32 16 -25 46 -27 35 -48 -53 38 51 -63 0
-12 -13 22 15 24 32 16 -25 46 -18 -35 -48 53 51 56 -63 0
-12 -13 22 15 24 32 16 -25 46 48 53 -21 -38 -51 56 -63 0
-13 24 32 16 33 46 18 -27 -48 -53 -21 -30 -38 51 -56 -63 0
-12 22 15 32 16 -25 33 46 18 -27 -35 -48 -53 -21 38 51 -63 0
-12 22 15 24 32 16 33 46 -18 27 -35 -48 -53 -30 -38 56 -63 0
-12 -13 22 15 24 32 16 33 -27 35 -48 -53 -21 -30 38 -56 -63 0
-12 -13 22 24 16 -25 33 46 -18 -27 48 53 -21 -38 -51 56 -63 0
22 15 24 32 16 33 46 -19 28 36 54 20 29 50 -64 0
22 15 24 32 16 33 46 19 -28 36 54 20 29 50 -64 0
22 15 24 32 16 33 46 19 28 49 20 29 -37 -55 64 0
-12 22 15 24 32 33 46 -19 -28 36 -49 -54 20 -29 -37 50 0
-12 15 24 32 16 33 46 -19 -28 -36 -49 54 -20 29 50 -55 0
-12 15 24 32 16 33 46 -19 28 49 -54 -20 -29 -37 -50 55 0
-12 -13 22 15 24 32 16 -25 46 -28 36 -49 -54 37 50 -64 0
-12 -13 22 15 24 32 16 -25 46 -19 -36 -49 54 50 55 -64 0
-12 -13 22 15 24 32 16 -25 46 49 54 -20 -37 -50 55 -64 0
-12 -13 22 15 24 32 16 -25 46 36 49 -29 37 -50 -55 -64 0
-12 -13 15 24 32 33 46 -19 -28 -36 49 -54 -20 29 -37 -50 55 0
-12 -13 15 24 32 33 46 -19 28 -36 -49 54 -20 -29 -37 50 -55 0
-12 15 24 32 -25 33 46 19 -28 36 -49 -54 -20 -29 -37 50 -55 0
-12 15 24 32 -25 33 46 -19 -28 -36 49 -54 20 -29 37 -50 -55 0
-12 22 15 24 16 -25 33 46 -19 -36 -49 54 -20 -29 -37 55 -64 0
-12 -13 22 24 32 16 33 46 -19 28 -36 -49 -54 -29 50 55 -64 0
-12 22 15 24 32 16 33 46 -19 36 -54 20 -29 -37 -50 -55 -64 0
22 15 24 32 16 33 46 19 28 49 21 30 -38 -56 65 0
22 15 24 32 16 33 46 19 28 49 -21 30 38 56 -65 0
-12 22 15 24 32 33 46 -19 -28 36 -49 -54 21 -30 -38 51 0
-12 -13 22 15 24 32 16 -25 46 -28 36 -49 -54 38 51 -65 0
22 15 24 32 16 -25 46 -19 28 49 -54 -21 30 -38 -51 -65 0
-12 -13 22 15 24 32 16 -25 46 -19 -36 -49 54 51 56 -65 0
-12 -13 22 15 24 32 16 -25 46 49 54 -21 -38 -51 56 -65 0
-12 -13 22 15 24 32 16 -25 46 36 49 -30 38 -51 -56 -65 0
-12 -13 15 24 32 33 46 -19 -28 -36 49 -54 -21 30 -38 -51 56 0
-12 -13 15 24 32 33 46 -19 28 -36 -49 54 -21 -30 -38 51 -56 0
22 15 24 32 16 33 46 20 -29 37 55 21 30 51 -66 0
22 15 24 32 16 33 46 20 29 50 21 30 -38 -56 66 0
-12 15 24 32 16 33 46 -20 -29 -37 -50 55 -21 30 51 -56 0
-12 15 24 32 16 33 46 -20 29 50 -55 -21 -30 -38 -51 56 0
-12 -13 22 15 24 32 16 -25 46 -29 37 -50 -55 38 51 -66 0
-12 -13 22 15 24 32 16 -25 46 -20 -37 -50 55 51 56 -66 0
-12 -13 22 15 24 32 16 -25 46 50 55 -21 -38 -51 56 -66 0
-12 -13 22 15 24 32 16 -25 46 37 50 -30 38 -51 -56 -66 0
-12 -13 22 15 24 32 16 33 -29 37 -50 -55 -21 -30 38 -56 -66 0
-12 -13 22 24 32 16 33 46 -20 29 -37 -50 -55 -30 51 56 -66 0
-12 -13 22 15 24 32 26 -34 -47 -18 27 -35 57 -19 28 49 0
-12 -13 22 15 24 32 26 -34 -47 -18 27 48 -19 28 -36 58 0
-12 -13 22 15 24 32 26 -34 -47 18 -35 48 -57 28 49 -58 0
-12 -13 22 15 24 32 26 -34 -47 27 48 -57 19 -36 49 -58 0
-12 -13 22 24 32 17 26 -47 -18 -27 35 -48 -57 -19 36 -61 0
-12 -13 22 32 17 -47 -18 -27 35 -48 -57 -19 36 49 58 -61 0
-12 -13 22 24 32 17 26 -47 -18 35 -19 -28 36 -49 -58 -61 0
-12 22 15 24 32 17 -34 -47 35 -57 -19 -28 36 -49 -58 -61 0
-12 -13 22 15 24 26 -34 -47 -18 27 -35 -48 -57 19 28 36 -58 0
-12 -13 15 24 32 26 -34 -47 -18 -27 -35 48 -57 -19 36 49 58 0
-12 -13 22 15 24 26 -34 -47 18 27 35 -57 -19 28 -36 -49 -58 0
-12 -13 15 24 32 26 -34 -47 -18 35 48 57 -19 -28 -36 49 -58 0
-12 -13 22 15 24 32 26 -34 -47 18 27 -57 -19 28 -36 -58 -61 0
-12 -13 22 15 24 32 26 -34 -47 -18 -35 48 -57 -19 49 58 -61 0
-12 -13 22 15 24 32 26 -34 -47 -18 27 -35 57 -20 29 50 0
-12 -13 22 15 24 32 26 -34 -47 18 -35 48 -57 29 50 -59 0
-12 -13 22 15 24 32 26 -34 -47 27 48 -57 20 -37 50 -59 0
-12 -13 22 24 32 17 26 -47 -18 27 57 -20 29 -37 -50 59 0
-12 -13 22 24 32 17 26 -47 -18 -27 35 -48 -57 -20 37 -62 0
-12 22 15 24 32 17 -34 -47 -18 -27 35 -48 -57 37 -59 -62 0
-12 -13 22 24 32 17 26 -47 -18 35 -20 -29 37 -50 -59 -62 0
-12 -13 22 15 24 26 -34 -47 -18 27 -35 -48 -57 20 29 37 -59 0
-12 -13 22 15 24 26 -34 -47 -18 27 -35 48 -57 20 29 -37 -59 0
-12 -13 15 24 32 26 -34 -47 -18 -27 -35 48 -57 -20 37 50 59 0
-12 -13 22 15 24 26 -34 -47 18 27 -35 -57 -20 29 -37 50 -59 0
-12 -13 22 15 24 26 -34 -47 18 27 35 -57 -20 29 -37 -50 -59 0
-12 -13 15 24 32 26 -34 -47 -18 -35 48 57 -20 29 -37 50 -59 0
-12 -13 15 24 32 26 -34 -47 -18 35 48 57 -20 -29 -37 50 -59 0
-12 -13 22 15 24 32 26 -34 -47 -18 27 -35 -57 20 29 -59 -62 0
-12 -13 22 15 24 32 26 -34 -47 18 27 -57 -20 29 -37 -59 -62 0
-12 -13 22 15 24 32 26 -34 -47 -18 -35 48 -57 -20 50 59 -62 0
-12 -13 22 15 24 32 26 -34 -47 -18 48 57 -20 -37 50 -59 -62 0
-12 -13 22 15 24 17 26 -34 -18 27 -35 48 29 -37 -50 -59 -62 0
-13 15 24 32 17 26 -34 -47 -18 -27 -35 48 29 -37 50 -59 -62 0
-12 -13 22 15 24 32 26 -34 -47 27 48 -57 21 -38 51 -60 0
-12 22 15 24 32 17 -34 -47 -18 -27 35 -48 -57 38 -60 -63 0
-12 22 15 24 32 26 -34 -47 -18 27 48 -57 21 51 -60 -63 0
-12 -13 32 17 26 -47 -18 -35 -48 57 -21 30 38 51 60 63 0
-12 -13 22 15 24 32 26 -34 -47 -18 27 -35 -57 21 30 -60 -63 0
-12 -13 22 15 24 32 26 -34 -47 -18 -35 48 -57 -21 51 60 -63 0
-12 -13 22 15 24 32 17 26 -18 27 -35 -57 30 -38 -51 -60 -63 0
-12 -13 22 15 24 32 26 -34 -47 -19 28 -36 58 -20 29 50 0
-12 -13 22 15 24 32 26 -34 -47 -19 28 49 -20 29 -37 59 0
-12 -13 22 15 24 32 26 -34 -47 19 -36 49 -58 29 50 -59 0
-12 -13 22 15 24 32 26 -34 -47 28 49 -58 20 -37 50 -59 0
-12 22 15 24 32 17 -34 -47 19 49 -58 20 -29 -37 50 -59 0
-12 -13 22 15 24 32 26 -47 -19 28 49 -58 -20 29 59 -64 0
-12 -13 22 24 32 17 26 -47 -19 36 -20 -29 37 -50 -59 -64 0
-12 22 15 24 32 17 -34 -47 36 -58 -20 -29 37 -50 -59 -64 0
-12 -13 22 15 24 26 -34 -47 -19 28 -36 -49 -58 20 29 37 -59 0
-12 -13 22 15 24 26 -34 -47 -19 28 -36 49 -58 20 29 -37 -59 0
-12 -13 15 24 32 26 -34 -47 -19 -28 -36 49 -58 -20 37 50 59 0
-12 -13 15 24 32 26 -34 -47 -19 28 -36 49 -58 -20 -37 50 59 0
-12 -13 22 15 24 26 -34 -47 19 28 -36 -58 -20 29 -37 50 -59 0
-12 -13 22 15 24 26 -34 -47 19 28 36 -58 -20 29 -37 -50 -59 0
-12 -13 15 24 32 26 -34 -47 -19 -36 49 58 -20 29 -37 50 -59 0
-12 -13 15 24 32 26 -34 -47 -19 36 49 58 -20 -29 -37 50 -59 0
-12 -13 22 15 24 17 26 -34 28 -36 -49 -58 -20 29 -37 50 -64 0
-12 -13 22 15 24 32 26 -34 -47 -19 28 -36 -58 20 29 -59 -64 0
-12 -13 22 15 24 32 26 -34 -47 19 28 -58 -20 29 -37 -59 -64 0
-12 -13 22 15 24 32 26 -34 -47 -19 -36 49 -58 -20 50 59 -64 0
-12 -13 22 15 24 32 26 -34 -47 -19 49 58 -20 -37 50 -59 -64 0
-12 -13 22 15 24 32 26 -34 -47 -19 28 -36 58 -21 30 51 0
-12 -13 22 15 24 32 26 -34 -47 19 -36 49 -58 30 51 -60 0
-12 -13 22 15 24 32 26 -34 -47 28 49 -58 21 -38 51 -60 0
-12 22 15 24 32 17 -34 -47 -19 -28 36 -49 -58 38 -60 -65 0
-12 -13 22 15 24 32 26 -34 -47 19 28 -58 -21 30 -38 -60 -65 0
-12 -13 22 15 24 32 26 -34 -47 -19 -36 49 -58 -21 51 60 -65 0
-12 -13 22 15 24 32 26 -34 -47 -19 49 58 -21 -38 51 -60 -65 0
-13 15 24 32 17 26 -34 -47 -19 -28 -36 49 30 -38 51 -60 -65 0
-12 -13 22 15 24 32 26 -34 -47 -20 29 -37 59 -21 30 51 0
-12 -13 22 24 32 17 26 -47 -20 29 -37 -50 59 -21 30 60 0
-12 22 15 24 32 17 -34 -47 20 -29 -37 50 -59 21 51 -60 0
-12 -13 22 24 32 17 26 -47 -20 -29 37 -50 -59 -21 38 -66 0
-12 -13 22 15 24 32 26 -47 -20 29 50 -59 -21 30 60 -66 0
-12 22 15 24 32 17 -34 -47 -20 -29 37 -50 -59 38 -60 -66 0
-12 22 15 24 32 26 -34 -47 -20 29 50 -59 21 51 -60 -66 0
-12 -13 22 15 24 32 26 -47 -20 29 59 -21 30 51 -60 -66 0
-12 15 24 26 -34 -47 -20 -29 -37 -50 -59 21 38 51 -60 66 0
-12 -13 22 15 24 26 -34 -47 -20 29 -37 -50 -59 21 30 38 -60 0
-12 -13 22 15 24 26 -34 -47 20 29 -37 -59 -21 30 -38 51 -60 0
-13 15 24 32 17 26 -34 -47 29 -37 50 -59 -21 -30 -38 51 -66 0
-12 -13 22 15 24 32 26 -34 -47 -20 -37 50 -59 -21 51 60 -66 0
-12 -13 22 15 24 32 26 -34 -47 -20 50 59 -21 -38 51 -60 -66 0
-13 15 24 32 17 26 -34 -47 -20 -29 -37 50 30 -38 51 -60 -66 0
-12 -13 22 15 24 -18 -27 35 -48 -19 49 -61 -20 29 -37 50 0
-12 22 15 24 32 -18 -27 35 -48 36 49 -61 20 -29 -37 50 0
-12 -13 22 15 24 32 -18 -27 -48 -19 49 -61 -20 29 -37 62 0
-12 -13 22 15 24 32 -18 -27 -48 -19 28 -36 61 -20 50 -62 0
-12 -13 22 24 32 18 27 -48 -19 28 61 -20 29 -37 -50 62 0
-12 -13 22 15 24 32 -18 48 -19 -28 -49 -61 -20 29 -37 64 0
-12 -13 22 15 24 32 -18 27 -35 -19 -28 -49 61 -20 50 -64 0
-12 -13 22 15 24 32 -18 -27 35 -19 -36 -49 61 -20 50 -64 0
-12 -13 22 15 24 32 18 -35 48 -19 -28 -49 61 50 62 -64 0
-12 -13 22 15 24 32 -18 -27 -48 19 -36 49 61 50 -62 64 0
-12 -13 22 15 24 32 -18 48 -19 28 -36 -20 -29 -50 -62 64 0
-12 -13 22 15 24 32 -18 27 -35 -19 49 -20 -29 -50 62 -64 0
-12 -13 22 15 24 32 48 -19 -36 -49 -61 20 -29 50 62 64 0
-12 -13 22 15 24 32 48 19 -36 49 61 -20 -29 -50 -62 64 0
-12 -13 22 24 32 -18 -27 35 -48 -19 36 20 37 -50 62 64 0
-12 -13 22 15 24 32 -18 48 -19 -28 36 -20 -37 -50 -62 64 0
-12 -13 22 15 24 32 -18 -27 35 -19 49 -20 -37 -50 62 -64 0
-12 -13 22 15 24 32 -18 -27 -48 49 -61 20 -37 50 62 64 0
-12 -13 22 15 24 32 48 -19 -28 -49 -61 20 -37 50 62 64 0
-12 -13 22 15 24 32 48 19 -28 49 61 -20 -37 -50 -62 64 0
-12 -13 22 15 32 18 27 35 -28 36 -49 -61 -20 -29 37 -50 -64 0
-13 22 15 24 32 18 27 48 -19 -28 36 -49 -61 -29 -37 62 -64 0
-12 -13 15 24 32 -18 -27 35 -48 -19 -28 -36 49 29 50 62 -64 0
-13 22 15 24 32 -27 -35 -19 -28 36 -49 -61 20 29 50 62 -64 0
-12 -13 22 15 32 -18 -27 35 -48 19 28 36 -29 37 -50 -62 -64 0
-12 -13 22 24 32 -35 48 19 28 49 61 -20 -29 37 -50 -62 -64 0
-12 -13 22 24 32 -27 48 19 36 49 61 -20 29 -37 -50 -62 -64 0
22 15 24 32 18 27 48 19 -28 36 -61 21 38 51 65 0
-13 22 15 24 32 27 48 -19 28 -36 -49 -61 21 -30 -38 51 0
-12 22 15 24 32 35 48 -19 -28 36 -49 -61 21 -30 -38 51 0
-12 -13 22 15 24 -18 -27 35 -48 -19 28 -36 49 -21 51 -63 0
-12 -13 22 15 24 32 -18 -27 -48 -19 28 -36 61 -21 51 -63 0
-12 -13 22 15 24 32 -18 -35 -48 -19 -28 36 61 -21 51 -63 0
-12 -13 22 15 24 -18 48 -19 28 -36 49 -21 -30 38 -51 -63 0
-12 -13 22 15 24 -18 27 -35 48 -19 -28 36 -49 -21 51 -65 0
-12 -13 22 15 24 32 -18 27 -35 -19 -28 -49 61 -21 51 -65 0
-12 -13 22 15 24 32 -18 -27 35 -19 -36 -49 61 -21 51 -65 0
-13 22 15 24 32 18 -27 -48 -19 28 -36 -49 -61 30 -63 -65 0
-12 -13 22 15 24 32 -18 -35 -48 19 -28 49 61 51 -63 65 0
-12 -13 22 15 24 32 -18 -27 -48 19 -36 49 61 51 -63 65 0
-12 -13 22 15 24 32 18 -27 48 -19 -36 -49 61 51 63 -65 0
-12 -13 22 15 24 32 48 -19 -36 -49 -61 21 -30 51 63 65 0
-13 22 15 24 32 27 -19 28 -36 -49 -61 21 -30 -51 -63 -65 0
-12 -13 22 15 24 -18 -27 35 -48 -20 29 -37 50 -21 51 -63 0
-12 -13 22 15 24 32 -18 -27 -48 -20 29 -37 62 -21 51 -63 0
-12 -13 22 15 24 32 -18 -35 -48 -20 -29 37 62 -21 51 -63 0
-13 22 15 24 32 -18 27 -35 -48 20 -29 -37 50 30 51 -63 0
-12 -13 22 15 24 -18 27 -35 48 -20 -29 37 -50 -21 51 -66 0
-12 -13 22 15 24 32 -18 -27 35 -20 -37 -50 62 -21 51 -66 0
-13 22 15 24 32 18 -27 -35 48 -20 29 -37 -50 30 51 -66 0
-12 -13 22 15 24 32 18 -35 48 29 -37 -50 -62 30 51 -66 0
-12 -13 22 15 24 32 35 48 -29 37 -50 -62 21 -30 51 -66 0
-13 22 15 24 32 -18 27 -35 -48 20 -29 -50 -62 30 -63 -66 0
-12 -13 15 24 32 -18 35 48 -20 -29 -37 -50 -21 38 -63 66 0
-12 -13 22 15 24 32 -18 -35 -48 20 -29 50 62 51 -63 66 0
-12 -13 22 15 24 32 18 -35 48 -20 -29 -50 62 51 63 -66 0
-12 -13 22 15 24 32 -18 -27 -48 20 -37 50 62 51 -63 66 0
-12 -13 22 15 24 32 18 -27 48 -20 -37 -50 62 51 63 -66 0
-12 15 24 32 -18 27 48 -20 -29 -37 -50 21 38 51 -63 66 0
-13 22 15 24 32 27 20 -29 -50 -62 -21 30 -38 -51 -63 -66 0
-12 -13 22 15 24 32 -19 -28 -49 -20 29 -37 64 -21 51 -65 0
-12 -13 22 24 32 19 36 -49 -20 29 -37 -50 -64 -21 30 -66 0
-12 -13 22 15 24 32 -19 49 -20 -29 -50 -64 -21 30 -38 66 0
-12 -13 22 15 24 32 -19 28 -36 -20 -29 -50 64 -21 51 -66 0
-12 -13 22 15 24 32 36 49 -29 37 -50 -64 21 -30 51 -66 0
-12 22 15 24 32 19 -28 -36 49 -20 -29 37 -50 38 51 -66 0
-12 -13 15 24 32 -19 36 49 -20 -29 -37 -50 -21 38 -65 66 0
-12 -13 22 15 24 32 -19 -36 -49 20 -29 50 64 51 -65 66 0
-12 -13 22 15 24 32 19 -36 49 -20 -29 -50 64 51 65 -66 0
-12 -13 22 15 24 32 -19 -28 -49 20 -37 50 64 51 -65 66 0
-12 -13 22 15 24 32 19 -28 49 -20 -37 -50 64 51 65 -66 0
-12 -13 22 15 24 32 -19 28 -36 -20 50 -21 -30 -51 65 -66 0
-13 22 15 24 32 -19 28 -36 -49 29 -64 21 -30 -51 -65 -66 0
-13 22 15 24 32 28 -20 29 -37 -50 -64 21 -30 -51 -65 -66 0
22 15 24 32 -28 -36 49 -20 -29 -50 -64 21 -38 51 65 66 0
-12 -13 15 24 32 28 -36 -49 -20 -37 50 64 -21 30 -38 51 -65 0
-12 22 15 24 32 -19 28 -36 -49 -29 -37 -64 21 38 51 -65 66 0
-13 22 15 24 32 19 28 49 -29 -37 64 -21 -30 38 -51 -65 -66 0
-12 -13 22 24 32 19 28 49 -37 50 64 -21 -30 38 -51 -65 -66 0
-12 -13 16 -25 33 17 26 -34 52 -27 53 57 -19 -28 36 54 0
-12 -13 16 -25 33 17 26 -34 52 -35 53 57 -19 28 -36 58 0
-12 -13 16 -25 33 17 26 -34 52 -18 -27 35 53 -28 54 58 0
-12 -13 16 -25 33 17 26 -34 52 -18 27 -35 57 -36 54 58 0
-12 22 16 -25 33 17 -34 52 18 -27 -35 -53 -57 19 -28 -61 0
-12 -13 16 -25 33 26 -34 52 -18 -27 -35 53 -57 19 28 -36 54 0
-12 -13 16 -25 33 26 -34 52 -18 -27 -35 53 57 -19 28 -36 54 0
-12 -13 -25 33 17 26 -34 52 -18 -27 -35 -53 57 19 -28 36 58 0
-12 -13 -25 33 17 26 -34 52 -18 -27 -35 53 57 -19 -28 36 58 0
-12 -13 16 -25 33 26 -34 52 -18 27 -35 53 -19 -28 -36 54 58 0
-12 -13 16 -25 33 26 -34 52 18 27 -35 53 -19 -28 -36 54 -58 0
-12 -13 -25 33 17 26 -34 52 -18 -27 35 57 -19 -28 -36 54 58 0
-12 -13 -25 33 17 26 -34 52 18 -27 35 57 -19 -28 -36 -54 58 0
-12 -13 16 -25 33 17 26 -34 52 -18 -27 -35 53 28 -36 54 -61 0
-12 -13 16 -25 33 17 26 -34 52 27 -35 53 -19 -28 -36 54 -61 0
-12 -13 16 -25 33 17 26 -34 52 -18 -27 -35 57 -28 36 58 -61 0
-12 -13 16 -25 33 17 26 -34 52 -27 35 57 -19 -28 -36 58 -61 0
-12 -13 22 16 -25 33 26 52 -18 -27 53 57 -19 -36 54 -58 -61 0
-12 -13 16 -25 33 17 26 -34 52 -27 53 57 -20 -29 37 55 0
-13 22 16 -25 17 26 -34 52 -18 27 -35 -53 57 29 -37 59 0
-12 -13 16 -25 33 17 26 -34 52 -35 53 57 -20 29 -37 59 0
-12 -13 16 -25 33 17 26 -34 52 -18 -27 35 53 -29 55 59 0
-12 -13 16 -25 33 17 26 -34 52 -18 27 -35 57 -37 55 59 0
-13 22 16 -25 17 26 -34 52 18 -27 -35 -53 -57 20 -37 -62 0
-12 16 -25 33 17 26 -34 52 -27 -35 53 57 -29 37 55 -62 0
-13 22 16 -25 17 26 -34 52 18 -35 20 -29 -37 -55 -59 -62 0
-12 -13 16 -25 33 26 -34 52 -18 -27 -35 53 -57 20 29 -37 55 0
-12 -13 -25 33 17 26 -34 52 -18 -27 -35 -53 57 20 -29 37 59 0
-12 -13 -25 33 17 26 -34 52 -18 -27 -35 53 57 -20 -29 37 59 0
-12 -13 16 -25 33 26 -34 52 18 27 -35 53 -20 -29 -37 55 -59 0
-12 -13 -25 33 17 26 -34 52 18 -27 35 57 -20 -29 -37 -55 59 0
-12 -13 16 -25 33 17 26 -34 52 -18 -27 -35 53 29 -37 55 -62 0
-12 -13 16 -25 33 17 26 -34 52 27 -35 53 -20 -29 -37 55 -62 0
-12 -13 16 -25 33 17 26 -34 52 -18 -27 -35 57 -29 37 59 -62 0
-12 -13 16 -25 33 17 26 -34 52 -27 35 57 -20 -29 -37 59 -62 0
-13 22 16 -25 17 26 -34 52 -18 27 -35 -53 57 30 -38 60 0
-12 -13 16 -25 33 17 26 -34 52 -35 53 57 -21 30 -38 60 0
-12 -13 16 -25 33 17 26 -34 52 -18 -27 35 53 -30 56 60 0
-12 -13 16 -25 33 17 26 -34 52 -18 27 -35 57 -38 56 60 0
-13 22 16 -25 17 26 -34 52 27 -35 57 -21 30 -38 -56 60 0
-12 22 16 -25 33 17 -34 52 18 -27 -35 -53 -57 21 -30 -63 0
-13 22 16 -25 17 26 -34 52 18 -27 -35 -53 -57 21 -38 -63 0
-12 22 16 -25 33 17 -34 52 18 -27 21 -30 -38 -56 -60 -63 0
-12 -13 16 -25 33 17 26 -34 52 -18 -27 -35 57 -30 38 60 -63 0
-12 -13 16 -25 33 17 26 -34 52 -27 35 57 -21 -30 -38 60 -63 0
-13 22 16 33 17 26 -34 52 -18 -27 -35 57 -21 -30 -56 60 -63 0
-12 -13 22 16 -25 33 26 52 -18 -27 53 57 -21 -38 56 -60 -63 0
-12 22 16 -25 33 17 -34 52 -19 -28 36 54 -58 -29 37 55 0
-12 -13 16 -25 33 17 26 -34 52 -28 54 58 -20 -29 37 55 0
-12 -13 16 -25 33 17 26 -34 52 -36 54 58 -20 29 -37 59 0
-12 -13 16 -25 33 17 26 -34 52 -19 -28 36 54 -29 55 59 0
-12 -13 16 -25 33 17 26 -34 52 -19 28 -36 58 -37 55 59 0
-13 22 16 -25 17 26 -34 52 28 -36 58 -20 29 -37 -55 59 0
-12 22 16 -25 33 17 -34 52 19 -28 -36 -54 -58 20 -29 -64 0
-13 22 16 -25 17 26 -34 52 19 -28 -36 -54 -58 20 -37 -64 0
-13 16 -25 33 17 26 -34 52 28 -36 58 -29 -37 55 59 -64 0
-13 22 16 -25 17 26 -34 52 19 -36 20 -29 -37 -55 -59 -64 0
-12 -13 16 -25 33 26 -34 52 -19 -28 -36 54 -58 20 29 -37 55 0
-12 -13 16 -25 33 26 -34 52 -19 -28 -36 54 58 -20 29 -37 55 0
-12 -13 -25 33 17 26 -34 52 -19 -28 -36 -54 58 20 -29 37 59 0
-12 -13 -25 33 17 26 -34 52 -19 -28 -36 54 58 -20 -29 37 59 0
-12 -13 16 -25 33 26 -34 52 -19 28 -36 54 -20 -29 -37 55 59 0
-12 -13 16 -25 33 26 -34 52 19 28 -36 54 -20 -29 -37 55 -59 0
-12 -13 -25 33 17 26 -34 52 -19 -28 36 58 -20 -29 -37 55 59 0
-12 -13 -25 33 17 26 -34 52 19 -28 36 58 -20 -29 -37 -55 59 0
-12 -13 16 -25 33 17 26 -34 52 -19 -28 -36 54 29 -37 55 -64 0
-12 -13 16 -25 33 17 26 -34 52 28 -36 54 -20 -29 -37 55 -64 0
-12 22 16 -25 33 17 26 52 -19 -36 54 -58 -20 -29 -37 55 -64 0
-12 -13 16 -25 33 17 26 -34 52 -19 -28 -36 58 -29 37 59 -64 0
-12 -13 16 -25 33 17 26 -34 52 -28 36 58 -20 -29 -37 59 -64 0
-12 -13 22 16 -25 33 26 52 -19 -28 54 58 -20 -37 55 -59 -64 0
-13 22 16 -25 17 26 -34 52 19 -28 -36 -54 -58 21 -38 -65 0
-12 -13 16 -25 33 17 26 -34 52 28 -36 54 -21 -30 -38 56 -65 0
-12 -13 16 -25 33 17 26 -34 52 -19 -28 -36 58 -30 38 60 -65 0
-13 22 16 33 17 26 -34 52 -19 -28 -36 58 -21 -30 -56 60 -65 0
-12 -13 16 -25 33 17 26 -34 52 -29 55 59 -21 -30 38 56 0
-12 22 16 -25 33 17 -34 52 20 -29 -37 -55 -59 21 -30 -66 0
-13 22 16 -25 17 26 -34 52 20 -29 -37 -55 -59 21 -38 -66 0
-13 16 -25 33 17 26 -34 52 -29 -37 55 59 30 -38 60 -66 0
-12 16 -25 33 17 26 -34 52 -29 37 55 -30 -38 56 60 -66 0
-12 22 16 -25 33 17 -34 52 20 -29 21 -30 -38 -56 -60 -66 0
-13 22 16 -25 17 26 -34 52 20 -37 21 -30 -38 -56 -60 -66 0
-12 -13 16 -25 33 26 -34 52 -20 -29 -37 55 -59 21 30 -38 56 0
-12 -13 16 -25 33 17 26 -34 52 -20 -29 -37 55 30 -38 56 -66 0
-12 -13 16 -25 33 17 26 -34 52 29 -37 55 -21 -30 -38 56 -66 0
-12 -13 16 -25 33 17 26 -34 52 -20 -29 -37 59 -30 38 60 -66 0
-12 -13 16 -25 33 17 26 -34 52 -29 37 59 -21 -30 -38 60 -66 0
-12 -13 -25 33 -27 -35 -53 -19 -28 -36 -61 -20 -29 37 -55 0
-12 -13 -25 33 -18 -27 -53 -19 -36 -54 -61 -20 -29 -37 55 0
-12 -13 -25 33 -27 -35 -53 -19 -28 36 -54 -20 -29 -37 -62 0
-12 -13 -25 33 -18 -27 -53 -19 -28 -36 54 -20 -37 -55 -62 0
-12 -13 -25 33 -18 -27 -35 -19 -28 36 -54 -29 -37 -55 -62 0
-12 -13 -25 33 -18 -27 35 -53 -28 -36 -54 -20 -29 -37 -64 0
-12 -13 -25 33 -18 -27 -35 53 -19 -36 -54 -20 -29 -55 -64 0
-12 -13 -25 33 -18 -27 -35 53 -19 -28 -54 -20 -37 -55 -64 0
-12 -13 -25 33 -18 -27 -35 -53 -19 -28 -36 -29 37 -55 -64 0
-12 -13 -25 33 -18 -27 35 -53 -19 -28 -36 -29 -37 -55 -64 0
-12 -13 -25 -18 -27 -35 -53 -19 -28 36 -54 -37 -55 -62 64 0
-12 -13 -25 -18 -27 35 -53 -19 -28 -36 -54 -37 -55 62 -64 0
-12 -13 16 -25 18 -35 -53 -19 -28 -36 -29 -37 -55 -62 -64 0
-12 -13 16 -25 -18 -27 -35 19 -36 -54 -29 -37 -55 -62 -64 0
-12 22 16 -25 33 18 -27 -35 -53 -28 36 -61 -20 -29 37 55 0
-12 -13 16 -25 33 -27 53 -19 -28 36 54 20 29 -37 55 62 0
-12 -13 22 16 -25 -18 -27 53 -19 -28 36 54 -20 -37 55 64 0
-13 22 -25 33 18 -53 19 28 36 -54 61 -20 37 -55 -62 64 0
-12 -13 22 -25 33 -18 -27 35 -53 19 36 -54 61 20 -29 37 -55 0
-12 -13 16 -25 33 -18 -27 -35 53 28 -36 54 61 -20 29 -37 55 0
-12 -13 22 -25 33 18 35 -53 -19 -28 36 -54 61 20 -29 37 -55 0
-12 -13 22 16 -25 33 -27 35 -53 19 36 -61 -20 -29 37 -62 64 0
-12 -13 16 -25 33 18 27 -35 53 -28 36 61 -20 -29 -37 62 -64 0
-12 -13 22 16 -25 33 18 35 -28 36 -54 -61 -20 -29 37 62 -64 0
-12 -13 22 16 -25 33 27 53 -19 -36 54 -61 -20 -29 55 62 -64 0
-12 -13 22 33 18 27 -35 53 -19 -36 54 61 -20 -29 -55 62 -64 0
-12 -13 -25 33 -18 -35 -53 -19 -28 -54 -61 -21 -30 -38 56 0
-12 -13 16 -25 33 -35 -53 -19 -28 -36 -61 -30 -56 -63 -65 0
-12 -13 -25 -18 -27 -35 -53 19 -28 36 -54 -38 -56 -63 -65 0
-12 -13 22 -25 27 -35 -53 -19 -28 -54 -21 -38 -56 -63 -65 0
-12 -13 16 -25 -18 -27 -35 19 -36 -54 -30 -38 -56 -63 -65 0
-12 -13 22 16 33 -18 53 -19 28 -36 -54 -61 -21 -30 38 56 0
-12 22 16 -25 33 -27 35 -19 -28 36 54 21 -30 -38 -56 -63 0
-12 16 33 18 27 35 53 -19 28 -54 61 -21 -30 -38 56 -63 0
-12 -13 22 16 33 -27 53 -19 28 -36 -54 -61 30 38 56 63 -65 0
-12 -13 16 -25 33 -35 -53 -29 -55 -62 -21 -30 -38 -63 -66 0
-12 22 16 -25 33 -27 35 20 -29 -37 -55 -62 -21 -30 38 56 0
-12 22 16 -25 33 18 -27 -35 -53 -20 -29 37 55 -30 38 -63 0
-12 22 16 -25 33 -27 35 -20 -29 37 55 21 -30 -38 -56 -63 0
-12 22 16 -25 33 -18 -27 35 53 20 -29 -37 -55 -30 38 -66 0
-12 -13 22 16 33 -18 -27 35 53 -20 29 -37 -55 -21 56 -66 0
-12 22 -25 33 -18 -27 35 20 -29 -37 -55 21 -30 38 63 -66 0
-12 -13 16 -25 33 18 27 -35 53 -20 -29 -37 62 -30 38 63 -66 0
-13 22 16 -25 33 18 -27 35 -20 -29 37 55 -21 -30 38 -63 -66 0
-12 -13 22 -25 33 -19 -36 -37 -55 -64 -21 -30 -56 -65 -66 0
-12 -13 22 16 -25 33 -28 36 -54 -20 -29 37 -64 21 38 -65 66 0
-12 -13 22 16 -25 33 -19 -28 36 -29 37 -55 -64 21 38 65 -66 0
-12 -13 22 16 -25 33 -19 -28 54 -20 -37 55 -64 30 56 65 -66 0
-12 -13 26 -34 -27 -35 -57 -19 -28 -36 -61 -20 29 -37 -59 0
-12 -13 26 -34 -18 -35 -57 -19 -28 -58 -61 -20 -29 -37 59 0
-12 -13 26 -34 -18 -27 -57 -19 -36 -58 -61 -20 -29 -37 59 0
-12 -13 26 -34 -18 -27 -35 -28 -36 -58 -61 -20 29 -37 -59 0
-12 -13 26 -34 -18 -27 -35 28 -36 -58 -61 -20 -29 -37 -59 0
-12 -13 26 -34 -18 -27 -35 -19 28 -36 -58 -29 -37 -59 -62 0
-12 -13 26 -34 -18 27 -35 -57 -28 -36 -58 -20 -29 -37 -64 0
-12 -13 26 -34 -18 -27 -35 57 -19 -36 -58 -20 -29 -59 -64 0
-12 -13 26 -34 -18 -27 -35 57 -19 -28 -58 -20 -37 -59 -64 0
-12 -13 26 -34 -18 -27 -35 -57 -19 -28 -36 29 -37 -59 -64 0
-12 -13 26 -34 -18 27 -35 -57 -19 -28 -36 -29 -37 -59 -64 0
-12 -13 22 26 -34 18 27 35 -57 -19 28 -36 58 -20 29 62 0
-12 -13 22 17 -34 -18 27 -35 57 -19 -36 58 -20 -29 59 62 0
-12 -13 22 17 -34 27 -35 -57 -19 28 -36 -20 29 -37 59 62 0
-13 17 26 -34 -27 -35 57 28 -36 58 -61 20 -29 37 59 62 0
-12 -13 17 26 -34 -27 35 57 -19 -28 -36 58 61 -20 -29 37 59 0
-12 -13 22 26 -34 -18 -35 -57 19 28 36 -58 61 -20 59 -62 64 0
-12 -13 22 17 26 -34 -18 -27 57 -19 -36 58 -61 37 59 -62 64 0
-12 -13 22 17 26 -34 18 27 -19 28 -36 61 29 -37 -59 -62 -64 0
-12 -13 -34 18 -27 35 -57 -19 -28 -36 -58 -30 -60 -63 -65 0
-12 -13 22 17 -34 -18 -27 57 -19 28 -36 58 61 -21 -38 60 0
-13 22 17 26 -34 18 -27 -35 -57 -19 28 -36 58 30 -38 -63 0
-12 -13 22 17 26 -18 -27 35 -57 -19 28 -36 58 -21 60 -63 0
-12 -13 22 17 26 27 -35 -57 -19 28 -36 58 -61 21 30 -38 -63 0
-12 -13 22 17 26 -34 27 -35 -57 -19 28 -36 -61 21 30 -63 65 0
-12 -13 26 -34 -18 -27 57 -20 -29 -37 -59 -21 -38 -60 -63 0
-12 -13 22 17 -34 27 -35 -57 -20 29 -37 59 62 -21 30 -38 0
-12 -13 22 17 -34 -18 27 -35 57 -20 -29 59 62 -21 -38 60 0
-12 -13 22 17 26 -18 -27 35 -57 -20 29 -37 59 -21 60 -63 0
-13 22 26 18 27 35 57 20 -29 -37 62 -21 30 -38 -60 -63 0
-12 -13 22 17 26 -18 27 -35 57 -20 -29 37 -59 -21 60 -66 0
-12 -13 22 17 -34 -18 -35 57 -20 29 -37 59 -21 -30 60 66 0
-12 -13 22 17 26 -34 -18 -27 57 37 59 -62 -21 -38 60 -63 66 0
-13 17 26 -34 -18 -27 -35 20 29 37 -59 62 30 -38 -60 -63 66 0
-12 -13 26 -34 -19 -28 -58 -20 -29 -37 59 -21 -38 -60 -65 0
-12 17 26 -34 -28 -36 -58 -20 -29 -37 -64 -21 -38 -60 -66 0
-12 -13 17 -34 -19 -28 -36 20 -29 -59 -30 -38 -60 -65 -66 0
-12 -13 22 17 -34 28 -36 -58 -20 29 -37 59 64 -21 30 -38 0
-12 -13 22 17 -34 -19 28 -36 29 -37 -59 -21 30 -38 60 66 0
-12 -13 22 17 26 -34 19 28 -20 29 -37 64 30 -38 -60 -65 -66 0
-12 -13 -27 -35 -19 -36 61 -20 -29 -37 -62 -21 -30 63 -65 0
-12 -13 -27 35 -19 -36 -61 -20 -29 -37 62 -21 -30 -63 -65 0
-12 -13 27 -35 -19 -36 -61 -20 -29 -37 62 -21 -30 -63 -65 0
-12 -13 -18 -35 28 -36 -61 -20 -29 -37 64 -21 -30 -63 -65 0
-12 -13 -27 35 -19 -28 -61 -20 -29 -37 62 -21 -38 -63 -65 0
-12 -13 27 -35 -19 -28 -61 -20 -29 -37 62 -21 -38 -63 -65 0
-12 -13 -18 -27 -28 36 -61 -20 -29 -37 64 -21 -38 -63 -65 0
-12 -13 -27 -36 -61 -20 -29 -37 62 64 -21 -30 -38 -63 -65 0
-12 -13 -18 -27 -35 -19 -28 -36 -37 -62 64 -30 -63 65 -66 0
-12 -13 -18 -27 -35 -28 -61 -20 -29 -37 64 -38 -63 -65 66 0
-12 -13 -18 -27 -35 -19 -28 -36 -29 -62 64 -38 -63 65 -66 0
-12 -13 -18 -35 -19 -28 -61 -20 -29 -37 30 -38 -63 -65 66 0
-12 -13 -18 -35 -19 -28 -36 -20 -29 -62 -30 -38 63 -65 66 0
-12 -13 22 -18 -27 35 19 36 61 -20 29 -37 -64 -21 65 -66 0
-12 14 23 15 -39 16 -25 46 18 -27 42 -48 -53 19 -28 43 0
-12 14 15 24 -39 16 -25 -40 46 18 -27 42 -53 19 -28 49 0
-12 14 15 24 -39 16 -25 -40 46 27 -42 48 -53 19 -43 49 0
-12 14 15 24 -39 16 -25 -40 46 18 -27 48 19 -28 43 -54 0
-12 14 15 24 -39 16 -25 -40 46 18 -42 48 28 -43 49 -54 0
-12 14 23 15 -39 16 -25 46 -18 -27 -42 -48 53 -28 54 -61 0
-12 23 15 24 -39 16 -40 46 -18 -27 -42 -48 53 -43 54 -61 0
-12 14 23 15 -39 16 -25 46 -27 53 -19 -28 -43 -49 54 -61 0
-12 23 15 24 -39 16 -40 46 -42 53 -19 -28 -43 -49 54 -61 0
-12 14 15 24 -39 16 -25 -40 18 -27 -42 -48 -53 19 28 -43 54 0
-12 14 15 24 -39 16 -25 -40 18 -27 -42 48 -53 19 28 -43 -54 0
-12 14 15 24 -39 -25 -40 46 18 -27 -42 48 -53 -28 43 49 -54 0
-12 14 15 24 -39 16 -25 -40 18 27 -42 -53 19 -28 -43 49 -54 0
-12 14 15 24 -39 16 -25 -40 18 27 -42 53 19 -28 -43 -49 -54 0
-12 14 15 24 -39 -25 -40 46 -27 42 48 -53 19 -28 -43 49 -54 0
-12 14 15 24 -39 -25 -40 46 -27 42 48 53 -19 -28 -43 49 -54 0
-12 14 15 24 -39 16 -25 -40 46 18 -27 -42 -53 19 28 -43 -61 0
-12 14 15 24 -39 16 -25 -40 46 -27 -42 48 -53 -28 43 49 -61 0
-12 14 15 24 -39 16 -25 -40 46 18 27 -42 19 -28 -43 -54 -61 0
-12 14 23 15 24 16 -25 -40 18 -42 -48 -53 19 -28 49 -54 -61 0
-12 14 15 24 -39 16 -25 -40 46 -27 42 48 -28 -43 49 -54 -61 0
-12 14 15 24 -39 16 -25 -40 46 18 -27 42 -53 20 -29 50 0
-12 14 15 24 -39 16 -25 -40 46 27 -42 48 -53 20 -44 50 0
-12 14 15 24 -39 16 -25 -40 46 18 -27 48 20 -29 44 -55 0
-12 14 15 24 -39 16 -25 -40 46 18 -42 48 29 -44 50 -55 0
-12 23 15 24 -39 16 -40 46 -42 53 -20 -29 -44 -50 55 -62 0
-12 14 15 24 -39 16 -25 -40 18 -27 -42 -48 -53 20 29 -44 55 0
-12 14 15 24 -39 16 -25 -40 18 -27 -42 48 -53 20 29 -44 -55 0
-12 14 15 24 -39 -25 -40 46 -18 -27 -42 48 -53 -29 44 50 55 0
-12 14 15 24 -39 16 -25 -40 18 27 -42 -53 20 -29 -44 50 -55 0
-12 14 15 24 -39 16 -25 -40 18 27 -42 53 20 -29 -44 -50 -55 0
-12 14 15 24 -39 -25 -40 46 -27 42 48 -53 20 -29 -44 50 -55 0
-12 14 15 24 -39 -25 -40 46 -27 42 48 53 -20 -29 -44 50 -55 0
-12 14 15 24 -39 16 -25 -40 46 18 -27 -42 -53 20 29 -44 -62 0
-12 14 15 24 -39 16 -25 -40 46 -27 -42 48 -53 -29 44 50 -62 0
-12 14 15 24 -39 16 -25 -40 46 18 27 -42 20 -29 -44 -55 -62 0
14 23 15 24 -39 -25 -40 46 18 -42 48 -53 -20 -29 50 -55 -62 0
-12 14 23 15 24 16 -25 -40 18 -27 48 -53 20 -44 -50 -55 -62 0
14 23 15 24 -39 -25 -40 46 -18 -27 48 -53 20 -44 50 -55 -62 0
-12 14 15 24 -39 16 -25 -40 46 -27 42 48 -29 -44 50 -55 -62 0
-12 14 23 15 -39 16 -25 46 18 -27 42 -48 -53 21 -30 45 0
-12 14 15 24 -39 16 -25 -40 46 18 -27 42 -53 21 -30 51 0
-12 14 15 24 -39 16 -25 -40 46 27 -42 48 -53 21 -45 51 0
-12 14 15 24 -39 16 -25 -40 46 18 -27 48 21 -30 45 -56 0
-12 14 23 15 -39 16 -25 46 -18 -27 -42 -48 53 -30 56 -63 0
-12 23 15 24 -39 16 -40 46 -18 -27 -42 -48 53 -45 56 -63 0
-12 14 23 15 -39 16 -25 46 -27 53 -21 -30 -45 -51 56 -63 0
-12 23 15 24 -39 16 -40 46 -42 53 -21 -30 -45 -51 56 -63 0
-12 14 15 24 -39 16 -25 -40 18 -27 -42 48 -53 21 30 -45 -56 0
-12 14 15 24 -39 -25 -40 46 -27 42 48 -53 21 -30 -45 51 -56 0
-12 14 15 24 -39 16 -25 -40 46 -27 -42 48 -53 -30 45 51 -63 0
-12 14 15 24 -39 16 -25 -40 46 18 27 -42 21 -30 -45 -56 -63 0
14 23 15 24 -39 -25 -40 46 18 -42 48 -53 -21 -30 51 -56 -63 0
-12 14 15 24 -39 16 -25 -40 46 -27 42 48 -30 -45 51 -56 -63 0
-12 14 15 24 -39 16 -25 -40 46 19 -28 43 -54 20 -29 50 0
-12 14 15 24 -39 16 -25 -40 46 28 -43 49 -54 20 -44 50 0
-12 14 15 24 -39 16 -25 -40 46 19 -28 49 20 -29 44 -55 0
-12 14 15 24 -39 16 -25 -40 46 19 -43 49 29 -44 50 -55 0
-12 14 15 24 -39 16 -25 46 19 -28 43 20 -29 -44 50 -64 0
-12 23 15 24 -39 16 -40 46 -19 -28 -43 -49 54 -44 55 -64 0
14 15 24 16 -40 46 -19 -28 43 -49 -20 -29 -44 50 -55 -64 0
-12 14 23 15 -39 16 -25 46 -28 54 -20 -29 -44 -50 55 -64 0
-12 23 15 24 -39 16 -40 46 -43 54 -20 -29 -44 -50 55 -64 0
-12 14 15 24 -39 16 -25 -40 19 -28 -43 -49 -54 20 29 -44 55 0
-12 14 15 24 -39 16 -25 -40 19 -28 -43 49 -54 20 29 -44 -55 0
-12 14 15 24 -39 -25 -40 46 -19 -28 -43 49 -54 -29 44 50 55 0
-12 14 15 24 -39 -25 -40 46 19 -28 -43 49 -54 -29 44 50 -55 0
-12 14 15 24 -39 16 -25 -40 19 28 -43 -54 20 -29 -44 50 -55 0
-12 14 15 24 -39 16 -25 -40 19 28 -43 54 20 -29 -44 -50 -55 0
-12 14 15 24 -39 -25 -40 46 -28 43 49 -54 20 -29 -44 50 -55 0
-12 14 15 24 -39 -25 -40 46 -28 43 49 54 -20 -29 -44 50 -55 0
-12 14 15 24 -39 16 -25 -40 46 19 -28 -43 -54 20 29 -44 -64 0
-12 14 15 24 -39 16 -25 -40 46 19 28 -43 20 -29 -44 -55 -64 0
-12 14 23 15 24 16 -25 -40 19 -28 49 -54 20 -44 -50 -55 -64 0
14 23 15 24 -39 -25 -40 46 -19 -28 49 -54 20 -44 50 -55 -64 0
-12 14 15 24 -39 16 -25 -40 46 -28 43 49 -29 -44 50 -55 -64 0
-12 14 15 24 -39 16 -25 -40 46 19 -28 43 -54 21 -30 51 0
-12 14 15 24 -39 16 -25 -40 46 28 -43 49 -54 21 -45 51 0
-12 14 15 24 -39 16 -25 -40 46 19 -43 49 30 -45 51 -56 0
-12 14 15 24 -39 16 -40 46 19 -28 -43 49 30 -45 51 -65 0
-12 14 24 -39 -40 46 -19 -28 -43 49 -54 21 30 -45 51 -65 0
-12 14 23 15 -39 16 -25 46 -28 54 -21 -30 -45 -51 56 -65 0
-12 14 15 24 -39 16 -25 -40 19 28 -43 -54 21 -30 -45 51 -56 0
-12 14 15 24 -39 -25 -40 46 -28 43 49 54 -21 -30 -45 51 -56 0
-12 14 15 24 -39 16 -25 -40 46 19 -28 -43 -54 21 30 -45 -65 0
-12 14 15 24 -39 16 -25 -40 46 -28 -43 49 -54 -30 45 51 -65 0
-12 14 15 24 -39 16 -25 -40 46 19 28 -43 21 -30 -45 -56 -65 0
-12 14 23 15 24 16 -25 -40 19 -43 -49 -54 21 -30 51 -56 -65 0
-12 14 15 24 -39 16 -25 -40 46 -28 43 49 -30 -45 51 -56 -65 0
-12 14 15 24 -39 16 -25 -40 46 29 -44 50 -55 21 -45 51 0
-12 23 15 24 -39 16 -40 46 -20 29 -44 50 -55 30 -45 51 0
-12 14 15 24 -39 16 -25 46 20 -29 -44 50 21 -30 45 -66 0
-12 23 15 24 -39 16 -40 46 -20 -29 -44 -50 55 -45 56 -66 0
-12 23 15 24 -39 16 -40 46 -44 55 -21 -30 -45 -51 56 -66 0
-12 14 15 24 -39 -25 -40 46 -20 -29 -44 50 -55 -30 45 51 56 0
-12 14 15 24 -39 16 -25 -40 20 29 -44 55 21 -30 -45 -51 -56 0
-12 14 15 24 -39 16 -25 -40 46 20 -29 -44 -55 21 30 -45 -66 0
-12 14 15 24 -39 16 -25 -40 46 -29 -44 50 -55 -30 45 51 -66 0
-12 14 15 24 -39 16 -25 -40 46 20 29 -44 21 -30 -45 -56 -66 0
-12 14 23 15 24 16 -25 -40 20 -44 -50 -55 21 -30 51 -56 -66 0
14 23 15 24 -39 -25 -40 46 -20 -29 50 -55 21 -45 51 -56 -66 0
-12 14 15 24 -39 16 -25 -40 46 -29 44 50 -30 -45 51 -56 -66 0
-12 23 15 -39 17 26 41 -47 -18 -27 42 -48 -57 43 -49 -61 0
-12 14 23 24 -39 26 41 -47 -18 27 42 -48 19 43 -49 -61 0
14 23 15 17 41 -47 -18 -27 42 -48 -57 -19 -28 -43 49 -61 0
-12 14 23 24 -39 17 41 -47 -18 -27 -42 -48 57 -49 58 -61 0
-12 14 23 15 -39 26 41 -47 -18 -27 -42 -48 57 -49 58 -61 0
-12 14 24 -39 17 26 41 -47 42 -48 -19 -28 43 -49 -58 -61 0
-12 14 23 24 -39 17 41 -47 -48 57 -19 -28 -43 -49 58 -61 0
-12 14 23 15 -39 26 41 -47 -48 57 -19 -28 -43 -49 58 -61 0
14 23 15 24 -39 26 41 -47 -18 42 -48 -57 -19 -28 43 -58 -61 0
23 15 24 -39 17 26 41 -47 -18 -42 -48 57 -19 -28 -43 58 -61 0
14 23 15 24 -39 17 41 -47 -27 42 -48 -57 -19 -28 43 -58 -61 0
14 15 24 -39 17 26 41 -47 -27 -42 -48 57 -19 -28 -43 58 -61 0
14 23 15 24 -39 26 41 -47 -18 -27 42 -57 -19 43 -49 -58 -61 0
14 23 15 24 -39 17 41 -47 -18 -27 42 -57 -28 43 -49 -58 -61 0
-12 14 24 -39 17 26 41 -47 27 -48 57 -20 29 -44 -50 59 0
-12 14 24 -39 17 26 41 -47 -18 -27 42 -48 -57 44 -50 -62 0
-12 23 15 -39 17 26 41 -47 42 -48 -20 -29 44 -50 -59 -62 0
-12 14 23 24 -39 17 41 -47 -48 57 -20 -29 -44 -50 59 -62 0
14 23 15 24 -39 26 41 -47 -18 42 -48 -57 -20 -29 44 -59 -62 0
23 15 24 -39 17 26 41 -47 -18 -42 -48 57 -20 -29 -44 59 -62 0
14 23 15 24 -39 26 41 -47 -18 -27 42 -57 -20 44 -50 -59 -62 0
14 23 15 24 -39 17 41 -47 -18 -27 42 -57 -29 44 -50 -59 -62 0
-12 23 15 -39 17 26 41 -47 -18 -27 42 -48 -57 45 -51 -63 0
-12 14 23 15 -39 26 41 -47 -48 57 -21 -30 -45 -51 60 -63 0
14 23 15 24 -39 17 41 -47 -18 -27 42 -57 -30 45 -51 -60 -63 0
-12 14 23 24 -39 17 41 -47 -19 28 43 -49 -58 29 44 -50 0
-12 23 15 -39 17 26 41 -47 19 -28 -43 -49 58 20 -50 59 0
-12 14 24 -39 17 26 41 -47 -19 -28 43 -49 -58 44 -50 -64 0
-12 14 23 15 -39 26 41 -47 -19 -28 -43 -49 58 -50 59 -64 0
-12 14 24 -39 17 26 41 -47 43 -49 -20 -29 44 -50 -59 -64 0
14 23 15 24 -39 26 41 -47 -19 43 -49 -58 -20 -29 44 -59 -64 0
23 15 24 -39 17 26 41 -47 -19 -43 -49 58 -20 -29 -44 59 -64 0
14 23 15 24 -39 17 41 -47 -28 43 -49 -58 -20 -29 44 -59 -64 0
23 15 24 -39 17 26 41 -47 -19 -28 -43 58 -20 -44 -50 59 -64 0
14 23 15 24 -39 17 41 -47 -19 -28 43 -58 -29 44 -50 -59 -64 0
-12 14 23 24 -39 17 41 -47 -19 28 43 -49 -58 30 45 -51 0
-12 23 15 -39 17 26 41 -47 -19 -28 43 -49 -58 45 -51 -65 0
-12 14 23 24 -39 26 41 -47 19 43 -49 -21 30 45 -51 -65 0
14 23 15 24 -39 17 41 -47 -19 -28 43 -58 -30 45 -51 -60 -65 0
-12 14 23 24 -39 17 41 -47 -20 -29 -44 -50 59 -51 60 -66 0
-12 14 23 15 -39 26 41 -47 -20 -29 -44 -50 59 -51 60 -66 0
-12 23 15 -39 17 26 41 -47 44 -50 -21 -30 45 -51 -60 -66 0
-12 14 23 15 -39 26 41 -47 -50 59 -21 -30 -45 -51 60 -66 0
23 15 24 -39 17 26 41 -47 -20 -44 -50 59 -21 -30 -45 60 -66 0
14 23 15 24 -39 17 41 -47 -29 44 -50 -59 -21 -30 45 -60 -66 0
14 15 24 -39 17 26 41 -47 -29 -44 -50 59 -21 -30 -45 60 -66 0
23 15 24 -39 17 26 41 -47 -20 -29 -44 59 -21 -45 -51 60 -66 0
-12 23 15 24 -39 -18 -27 -42 -48 -19 -61 -20 29 44 62 64 0
14 15 -39 -18 -27 -42 -48 -19 -28 49 -61 20 29 44 62 -64 0
-12 23 15 24 -39 -18 -19 -28 -43 -49 -61 -20 29 44 62 64 0
-12 14 15 24 -39 -27 -19 -28 -43 -49 -61 20 -29 44 62 64 0
-12 14 23 24 -39 -18 -27 -42 -48 -19 -61 -20 29 50 62 64 0
-12 14 23 24 -39 -18 -19 -28 -43 -49 -61 -20 29 50 62 64 0
-12 14 23 15 -39 -27 -19 -28 -43 -49 -61 20 -29 50 62 64 0
-12 23 15 24 -39 -42 -19 -28 -43 -49 -61 20 -44 50 62 64 0
-12 14 23 24 -39 -48 -19 -28 -43 -49 -61 20 44 -50 62 64 0
-12 14 15 24 -39 -42 -19 -28 -43 -49 -61 29 -44 50 62 64 0
-12 14 23 15 -39 -48 -19 -28 -43 -49 -61 29 44 -50 62 64 0
-12 14 15 24 -39 18 -27 42 -28 61 -20 -29 -44 -50 62 -64 0
-12 23 15 24 -39 18 -42 48 -43 61 -20 -29 -44 -50 62 -64 0
-12 14 15 24 -39 -27 19 -28 43 61 -20 -29 -44 -50 -62 64 0
-12 14 23 15 -39 27 42 -48 -49 61 -20 -29 -44 -50 62 -64 0
-12 14 23 24 -39 -18 -19 28 49 61 -20 -29 -44 -50 -62 64 0
-12 23 15 24 -39 -42 19 -43 49 61 -20 -29 -44 -50 -62 64 0
-12 14 23 24 -39 -48 19 43 -49 61 -20 -29 -44 -50 -62 64 0
-12 14 15 24 -39 -42 28 -43 49 61 -20 -29 -44 -50 -62 64 0
-12 14 23 24 -39 18 27 -48 -19 28 -49 61 -20 29 -44 -50 -64 0
23 15 24 -39 18 27 42 -48 -19 -28 -43 61 -20 -44 -50 62 -64 0
14 23 24 -39 -18 -27 -48 19 28 -43 49 61 -20 -44 -50 -62 64 0
-12 14 23 15 -39 -27 42 48 -19 -28 43 -49 -29 44 -50 62 -64 0
-12 14 23 24 -18 -27 -48 -19 -43 -49 -61 20 -29 44 50 62 64 0
-12 14 23 -39 -18 -27 -48 -19 -43 -49 -61 -30 -45 -51 -63 0
-12 23 15 24 -39 -18 -27 -42 -48 -19 28 43 61 -21 -63 65 0
-12 14 23 24 -39 -18 -27 -42 -48 -19 28 49 61 -21 -63 65 0
-12 14 23 24 -39 -18 27 48 -19 -28 -43 -49 61 -21 63 -65 0
-12 14 15 24 -39 -18 -27 -42 -48 19 -28 43 61 -30 -63 65 0
-12 23 15 24 -39 -18 -27 -42 -48 19 -43 49 61 -45 -63 65 0
-12 23 15 24 -39 18 -42 48 -19 -28 -43 -49 61 -45 63 -65 0
-12 14 23 15 -39 27 42 -48 -19 -28 -43 -49 61 -51 63 -65 0
-12 14 23 24 -39 -18 -19 -28 -43 -49 -61 -21 30 51 63 65 0
-12 14 15 24 -39 -42 -19 -28 -43 -49 -61 30 -45 51 63 65 0
-12 14 15 24 -39 18 -27 42 -28 61 -21 -30 -45 -51 63 -65 0
-12 23 15 24 -39 -18 -19 28 43 61 -21 -30 -45 -51 -63 65 0
-12 14 23 15 -39 -48 28 43 -49 61 -21 -30 -45 -51 -63 65 0
-12 14 23 24 -18 -42 -48 19 -28 43 49 61 -21 -30 -51 -63 65 0
-12 14 23 15 -18 -27 -48 -19 28 43 49 61 -30 -45 -51 -63 65 0
-12 23 15 24 -39 -18 -27 -42 -48 -20 29 44 62 -21 -63 66 0
-12 14 23 24 -39 -18 -27 -42 -48 -20 29 50 62 -21 -63 66 0
-12 14 23 24 -39 -18 27 48 -20 -29 -44 -50 62 -21 63 -66 0
-12 14 15 24 -39 -18 -27 -42 -48 20 -29 44 62 -30 -63 66 0
-12 23 15 24 -39 -18 -27 -42 -48 20 -44 50 62 -45 -63 66 0
-12 14 15 24 -39 27 -42 48 -20 -29 -44 -50 62 -45 63 -66 0
-12 14 23 24 -39 -18 -27 -42 -48 20 44 -50 62 -51 -63 66 0
-12 14 23 15 -39 -18 -27 -42 -48 29 44 -50 62 -51 -63 66 0
-12 14 23 24 -39 18 42 -48 -20 -29 -44 -50 62 -51 63 -66 0
-12 14 23 15 -39 27 42 -48 -20 -29 -44 -50 62 -51 63 -66 0
-12 14 23 24 -18 -27 -48 20 -29 44 50 62 -21 -45 -51 -63 66 0
-12 14 23 -39 -19 -28 -49 -20 -44 -50 -64 -30 -45 -51 -65 0
-12 23 15 24 -39 -19 -28 -43 -49 -20 29 44 64 -21 -65 66 0
-12 14 23 24 -39 -19 -28 -43 -49 -20 29 50 64 -21 -65 66 0
-12 23 15 24 -39 -19 28 43 -20 -29 -44 -50 64 -21 65 -66 0
-12 14 23 24 -39 -19 28 49 -20 -29 -44 -50 64 -21 65 -66 0
-12 14 15 24 -39 -19 -28 -43 -49 20 -29 44 64 -30 -65 66 0
-12 14 23 15 -39 -19 -28 -43 -49 20 -29 50 64 -30 -65 66 0
-12 14 15 24 -39 19 -28 43 -20 -29 -44 -50 64 -30 65 -66 0
-12 14 23 15 -39 19 -28 49 -20 -29 -44 -50 64 -30 65 -66 0
-12 23 15 24 -39 -19 -28 -43 -49 20 -44 50 64 -45 -65 66 0
-12 14 15 24 -39 -19 -28 -43 -49 29 -44 50 64 -45 -65 66 0
-12 14 15 24 -39 28 -43 49 -20 -29 -44 -50 64 -45 65 -66 0
-12 14 23 24 -39 -19 -28 -43 -49 20 44 -50 64 -51 -65 66 0
-12 14 23 15 -39 -19 -28 -43 -49 29 44 -50 64 -51 -65 66 0
-12 14 23 24 -39 19 43 -49 -20 -29 -44 -50 64 -51 65 -66 0
-12 14 23 15 -39 28 43 -49 -20 -29 -44 -50 64 -51 65 -66 0
-12 14 23 24 -39 -19 -28 -43 -49 -20 -64 -21 30 51 65 66 0
14 15 24 -39 -28 -43 -49 20 29 44 -50 64 -21 -30 -45 -65 66 0
14 23 15 -39 19 28 -43 49 -29 -44 -50 64 -21 -30 -51 65 -66 0
-12 14 23 15 -28 -43 -49 -20 29 44 50 64 -21 -30 -51 -65 66 0
14 15 24 -39 19 28 43 -49 -20 -29 -44 64 -30 -45 -51 65 -66 0
14 16 -25 17 26 41 52 18 -27 -42 -53 -57 -19 28 -54 58 0
14 23 -25 17 26 41 52 -18 -27 42 -53 -57 -28 -43 54 58 0
14 23 -25 17 26 41 52 -27 -42 53 57 -19 -28 43 -54 -58 0
-12 23 16 -25 -40 17 26 41 52 18 -42 -53 -57 19 58 -61 0
-12 23 16 -25 -40 17 26 41 52 -18 -27 42 -57 43 58 -61 0
-12 23 16 -25 -40 17 26 41 52 18 57 19 -43 -54 -58 -61 0
-12 23 16 17 26 41 52 -18 27 -53 57 28 -43 -54 -58 -61 0
23 16 -40 17 26 41 52 -18 -27 53 -57 -28 -43 54 58 -61 0
-12 14 -25 17 26 41 52 -18 -27 42 53 -57 -19 -28 -43 -54 58 0
-12 14 -25 17 26 41 52 -18 -27 -42 -53 57 -19 -28 43 54 -58 0
14 -25 -40 17 26 41 52 18 27 -42 -53 -57 -19 -28 -43 -54 58 0
14 -25 -40 17 26 41 52 -18 -27 -42 -53 57 19 28 -43 -54 -58 0
14 23 16 -25 17 26 41 52 -18 -27 -42 53 -57 -19 43 -54 -61 0
-12 14 23 16 -25 17 41 52 -18 -27 -42 53 -57 43 -54 58 -61 0
14 23 16 17 26 41 52 27 53 57 -20 29 -44 55 62 0
14 23 16 17 26 41 52 27 53 57 20 -29 -44 55 62 0
14 23 16 17 26 41 52 27 53 57 20 -29 44 55 -62 0
14 23 16 17 26 41 52 -18 27 -42 53 29 55 59 62 0
14 23 16 -40 17 26 41 27 -42 53 20 29 55 59 62 0
14 16 -25 17 26 41 52 18 -27 -42 -53 -57 -20 29 -55 59 0
14 16 -25 17 26 41 52 -18 27 -53 57 20 -29 -44 -55 -59 0
14 23 -25 17 26 41 52 -27 -42 53 57 -20 -29 44 -55 -59 0
-12 23 16 -25 -40 17 26 41 52 -18 -27 42 -57 44 59 -62 0
-12 23 16 -25 -40 17 26 41 52 42 57 -20 -29 44 -59 -62 0
-12 23 16 17 26 41 52 27 -42 -53 -57 -20 29 -55 59 -62 0
-12 23 16 -25 -40 17 26 41 52 18 57 20 -44 -55 -59 -62 0
-12 23 16 17 26 41 52 -18 27 -53 57 29 -44 -55 -59 -62 0
23 16 -40 17 26 41 52 -18 -27 53 -57 -29 -44 55 59 -62 0
-12 14 -25 17 26 41 52 -18 -27 42 53 -57 -20 -29 -44 -55 59 0
-12 14 -25 17 26 41 52 -18 -27 -42 -53 57 -20 -29 44 55 -59 0
14 -25 -40 17 26 41 52 18 27 -42 -53 -57 -20 -29 -44 -55 59 0
14 -25 -40 17 26 41 52 -18 -27 -42 -53 57 20 29 -44 -55 -59 0
14 23 16 -25 -40 26 41 52 -18 -27 42 -53 -20 -29 44 -59 -62 0
-12 14 23 16 -25 -40 41 52 -27 42 -53 57 -20 -29 44 -59 -62 0
-12 14 23 16 -25 17 41 52 42 -53 57 -20 -29 -44 55 -59 -62 0
14 23 16 17 26 41 52 27 53 57 21 -30 45 56 -63 0
14 23 16 17 26 41 52 27 53 57 21 30 45 -56 -63 0
14 23 -25 17 26 41 52 -27 -42 53 57 -21 -30 45 -56 -60 0
-12 23 16 -25 -40 17 26 41 52 18 -42 -53 -57 21 60 -63 0
-12 23 16 -25 -40 17 26 41 52 -18 -27 42 -57 45 60 -63 0
14 23 16 17 26 41 52 -19 28 -43 54 29 55 59 64 0
14 23 16 17 26 41 52 19 28 43 -54 29 55 59 -64 0
14 16 -25 17 26 41 52 19 -28 -43 -54 -58 -20 29 -55 59 0
14 23 -25 17 26 41 52 -19 -28 43 -54 -58 -29 -44 55 59 0
14 16 -25 17 26 41 52 -19 28 -54 58 20 -29 -44 -55 -59 0
-12 23 16 -25 -40 17 26 41 52 43 58 -20 -29 44 -59 -64 0
14 16 -40 17 26 52 -19 -28 -43 -54 58 -20 -29 44 -59 -64 0
-12 23 16 17 26 41 52 28 -43 -54 -58 -20 29 -55 59 -64 0
23 16 -40 17 26 41 52 -28 -43 54 58 -20 -29 55 -59 -64 0
-12 23 16 -25 -40 17 26 41 52 19 58 20 -44 -55 -59 -64 0
23 16 -40 17 26 41 52 -19 -28 43 -58 -20 44 -55 59 -64 0
-12 14 23 26 41 52 19 -43 -54 -58 -20 -29 -44 -55 59 -64 0
-12 14 -25 17 26 41 52 -19 -28 43 54 -58 -20 -29 -44 -55 59 0
-12 14 -25 17 26 41 52 -19 -28 -43 -54 58 -20 -29 44 55 -59 0
14 -25 -40 17 26 41 52 19 28 -43 -54 -58 -20 -29 -44 -55 59 0
14 -25 -40 17 26 41 52 -19 -28 -43 -54 58 20 29 -44 -55 -59 0
-12 14 23 16 -25 -40 17 26 19 -28 -54 58 20 -44 -55 -59 -64 0
14 23 -25 17 26 41 52 -19 28 43 -54 -20 -29 -44 -55 -59 64 0
14 23 16 17 26 41 52 28 54 58 -21 30 -45 56 65 0
14 23 16 17 26 41 52 28 54 58 -21 30 45 -56 65 0
14 16 -25 17 26 41 52 19 -28 -43 -54 -58 -21 30 -56 60 0
14 23 -25 17 26 41 52 -28 -43 54 58 -21 -30 45 -56 -60 0
-12 23 16 -25 -40 17 26 41 52 19 -43 -54 -58 21 60 -65 0
-12 23 16 -25 -40 17 26 41 52 -19 -28 43 -58 45 60 -65 0
-12 23 16 17 26 41 52 19 -43 -54 -58 21 -30 -45 60 -65 0
-12 14 -25 17 26 41 52 -19 -28 43 54 -58 -21 -30 -45 -56 60 0
14 23 16 -25 -40 17 26 41 -19 28 -43 -54 -58 21 -30 60 -65 0
14 23 16 17 26 41 52 29 55 59 -21 30 -45 56 66 0
14 23 16 17 26 41 52 20 -29 44 55 30 56 60 -66 0
14 23 -25 17 26 41 52 -20 -29 44 -55 -59 -30 -45 56 60 0
14 16 -25 17 26 41 52 -20 29 -55 59 21 -30 -45 -56 -60 0
14 23 -25 17 26 41 52 -29 -44 55 59 -21 -30 45 -56 -60 0
-12 23 16 -25 -40 17 26 41 52 20 -44 -55 -59 21 60 -66 0
-12 23 16 -25 -40 17 26 41 52 -20 -29 44 -59 45 60 -66 0
-12 23 16 -25 -40 17 26 41 52 44 59 -21 -30 45 -60 -66 0
-12 23 16 -25 -40 17 26 41 52 20 59 21 -45 -56 -60 -66 0
-12 23 16 17 26 41 52 -20 29 -55 59 30 -45 -56 -60 -66 0
14 -25 -40 17 26 41 52 20 29 -44 -55 -59 -21 -30 -45 -56 60 0
14 -25 -40 17 26 41 52 -20 -29 -44 -55 59 21 30 -45 -56 -60 0
-12 14 23 16 -25 17 41 52 -20 -29 -44 55 -59 45 -56 60 -66 0
-12 14 23 16 -25 17 26 52 20 -29 -44 -55 21 -45 -56 -60 -66 0
-12 14 23 16 -25 17 41 52 44 -55 59 -21 -30 -45 56 -60 -66 0
-12 14 -25 -40 -27 -42 -53 -19 -28 -43 -61 -20 -29 44 -55 0
-12 14 -25 -40 -18 -42 -53 -19 -28 -54 -61 20 -29 -44 -55 0
-12 14 -25 -40 -18 -27 -53 -19 -43 -54 -61 20 -29 -44 -55 0
-12 14 -25 -40 -18 -27 -53 19 -43 -54 -61 -20 -29 -44 -55 0
-12 14 -25 -40 -18 -27 -42 -28 -43 -54 -61 -20 -29 44 -55 0
-12 14 -25 -40 -27 -42 -53 -19 -28 43 -54 -20 -29 -44 -62 0
-12 14 -25 -40 -18 -42 -53 19 -28 -43 -54 -20 -29 -55 -62 0
-12 14 -25 -40 -18 -27 -53 19 -28 -43 -54 -20 -44 -55 -62 0
-12 14 -25 -40 -18 -27 -42 -19 -28 43 -54 -29 -44 -55 -62 0
-12 -25 -40 -18 -42 -19 -28 -43 -54 -61 -20 29 -44 55 -62 0
-12 -25 -40 -18 -42 19 -28 -43 -54 61 -20 -29 -44 -55 -62 0
-12 14 -25 -40 -18 -27 42 -53 -28 -43 -54 -20 -29 -44 -64 0
-12 14 -25 -40 -18 -27 -42 -53 19 -43 -54 -20 -29 -55 -64 0
-12 14 -25 -40 18 -27 -42 -53 -19 -43 -54 -20 -29 -55 -64 0
-12 14 -25 -40 18 -27 -42 -53 -19 -28 -54 -20 -44 -55 -64 0
-12 14 -25 -40 -18 -27 42 -53 -19 -28 -43 -29 -44 -55 -64 0
-12 14 23 -40 -27 -42 -53 -19 -43 -54 -20 -29 -55 -62 -64 0
14 23 16 -25 -40 18 -27 42 -53 19 -54 -20 29 -44 -55 -64 0
14 23 -25 -27 -42 53 -19 -28 43 -54 20 29 44 55 62 -64 0
-12 14 23 16 -25 -40 42 53 -28 43 -54 61 -20 -29 44 -62 -64 0
-12 14 23 -25 -40 -18 27 42 53 19 -54 61 -20 -29 -55 62 -64 0
-12 14 23 -25 -40 18 -53 -19 28 43 54 61 -20 -29 -55 -62 64 0
-12 14 23 16 -25 -40 18 27 19 -28 -54 61 20 -44 -55 -62 -64 0
-12 14 23 16 -25 -40 42 53 -19 -28 43 -61 -29 44 -55 62 -64 0
14 23 -25 -40 -18 -27 -53 19 -43 -54 -61 20 29 -44 55 62 64 0
-12 -25 -40 -18 27 -42 53 -19 -28 -43 -54 -21 -45 -63 -65 0
-12 14 23 -25 -40 -42 -53 -19 -43 -61 -21 -30 -56 -63 -65 0
-12 14 16 -25 -40 -18 -42 -19 -28 -61 -30 -45 -56 -63 -65 0
-12 23 16 -25 -40 18 -27 42 -53 19 -43 -54 61 21 -30 -56 0
14 23 16 -25 -40 18 -53 -19 28 -43 -54 -61 21 -30 45 -56 0
14 16 -25 -40 18 27 -53 -19 28 -43 -54 -61 21 -30 -56 63 0
-12 14 23 16 -25 18 -27 42 -53 -19 -28 -43 54 -30 45 -65 0
14 23 16 -25 -40 18 -27 42 -53 -19 28 -43 -54 21 -56 -65 0
-12 14 -40 -18 -27 -42 -53 -19 28 54 61 -21 45 56 -63 65 0
-12 14 23 18 -42 -53 28 43 54 -61 -21 -30 -45 -56 -63 65 0
-12 14 23 16 -25 -40 42 53 -28 43 -54 61 -21 -30 45 -63 -65 0
-12 14 23 16 -25 -40 18 -27 -53 19 28 61 21 -45 -56 -63 -65 0
-12 14 -25 -40 -18 -27 -53 -20 -44 -55 -62 21 -30 -45 -56 0
-12 14 23 16 -25 -18 -27 -42 53 -29 44 -62 21 -30 45 -56 0
14 16 -40 18 27 53 -20 -29 -44 -55 62 -21 -30 45 -63 -66 0
14 16 -40 -18 -27 -42 -53 20 29 44 62 -21 -30 56 -63 -66 0
-12 14 23 16 -25 18 -27 42 -53 20 -44 -55 -62 21 30 -56 -66 0
-12 14 -25 -40 -19 -28 -54 -20 -44 -55 -64 21 -30 -45 -56 0
-12 14 -25 -40 -19 -28 -54 20 -44 -55 -64 -21 -30 -45 -56 0
-12 14 -25 -40 -19 -28 43 -54 -29 -44 -55 -21 -30 -45 -66 0
-12 14 23 -25 -40 -19 -28 -54 -20 -44 -64 -45 -56 -65 -66 0
-12 14 23 16 -25 19 -28 43 -54 -20 -29 -44 55 -30 45 -66 0
14 16 -25 19 -28 -43 -54 20 29 44 55 -64 -21 30 -56 66 0
-12 14 16 -25 -40 19 28 -43 54 -29 -44 -55 64 -30 45 65 -66 0
-12 14 16 -25 -19 28 43 54 -29 -44 -55 64 -21 -30 45 65 -66 0
-12 14 23 16 -25 -40 -28 43 -54 -20 -29 44 -64 45 56 65 -66 0
-12 14 23 16 -25 -40 -19 -28 43 -29 44 -55 -64 45 56 -65 66 0
-12 14 23 16 -25 -40 -19 -28 43 44 55 -64 -30 45 -56 -65 66 0
14 23 17 26 41 27 42 19 28 58 -61 20 44 62 -64 0
14 23 17 26 41 18 -27 57 19 43 61 29 44 -62 64 0
14 23 17 26 41 18 42 -19 28 58 -61 29 44 62 64 0
14 23 17 26 41 18 42 19 -28 58 61 29 44 62 -64 0
14 23 17 26 41 27 57 19 58 61 20 -29 44 -62 64 0
14 23 17 26 41 27 57 19 58 61 20 29 44 -62 -64 0
14 23 17 26 41 18 57 28 58 61 -20 29 44 -62 64 0
14 23 17 26 41 18 57 28 58 61 20 -29 44 62 -64 0
14 23 17 26 41 18 57 28 58 61 20 29 44 -62 -64 0
14 23 17 26 41 27 57 19 -28 43 -61 20 59 62 64 0
14 23 17 26 41 18 -27 42 28 58 -61 20 59 62 64 0
14 23 17 26 41 -18 27 42 28 58 61 20 59 -62 64 0
14 23 17 26 41 18 -27 42 19 58 61 29 59 -62 64 0
14 23 17 26 41 27 42 19 43 61 20 -29 59 -62 64 0
14 23 17 26 41 27 42 19 43 61 20 29 59 -62 -64 0
14 23 17 26 41 18 42 28 43 61 20 29 59 -62 -64 0
-12 14 23 26 41 -18 -27 -42 57 43 58 -61 20 -29 44 -59 0
-12 14 23 17 41 42 57 -19 -28 -43 58 -61 -20 29 44 -59 0
-12 14 23 26 41 42 57 -19 -28 -43 58 -61 20 -29 44 -59 0
14 23 17 26 41 -27 42 -19 -28 -43 58 -61 -29 44 -59 62 0
-12 14 23 17 41 42 57 -19 28 43 -58 -20 -29 -44 59 -62 0
14 23 17 26 41 -18 57 -19 -43 58 61 -20 -29 44 -59 -62 0
14 23 17 26 41 -18 -27 42 -57 -19 58 -61 -20 -44 59 64 0
14 23 17 26 41 -18 -27 -42 57 -28 43 -61 -29 44 -59 64 0
14 23 17 26 41 -27 42 -57 -28 43 61 -20 -29 -44 59 -64 0
14 23 17 26 41 -18 -42 57 -19 58 61 -20 -29 44 -59 -64 0
14 23 17 26 41 -27 42 -57 -19 -28 -43 58 -29 44 62 -64 0
14 23 17 26 41 -18 -27 42 -57 -19 -43 58 -20 59 -62 64 0
23 17 26 41 -18 -27 -42 57 -28 43 -61 -20 -44 -59 -62 64 0
23 17 26 41 18 -27 57 -28 -43 58 61 -20 -44 -59 62 -64 0
23 17 26 41 -27 42 -19 -28 -43 58 -61 -20 -44 -59 62 -64 0
-12 14 23 17 41 -18 -27 -42 57 58 -61 29 -44 -59 -62 -64 0
23 17 26 41 -18 -42 -57 -28 43 61 -20 -29 -44 59 -62 -64 0
-12 14 23 26 41 -18 42 -19 -28 -43 58 61 -20 -29 44 -59 -62 0
-12 14 23 17 41 -27 42 -19 -28 43 -58 -61 -20 -29 -44 59 62 0
-12 23 17 26 41 -18 57 -19 -28 -43 58 -61 -20 -29 44 -59 62 0
-12 14 23 26 41 -18 -27 42 -57 -19 43 -61 -20 -29 -44 59 64 0
-12 14 23 26 41 -18 -27 -42 57 -19 43 61 -20 -29 44 -59 -64 0
-12 14 17 26 41 -18 -27 42 -57 -28 58 61 -20 -29 -44 59 -64 0
-12 23 17 26 41 -18 -27 -42 57 -19 -28 43 -58 -20 59 -62 64 0
-12 23 17 26 41 -18 -27 42 -57 -19 -28 -43 58 -20 59 62 -64 0
-12 14 17 26 41 -18 -27 -42 57 -19 -28 43 -58 -29 59 -62 64 0
-12 14 17 26 41 -18 -27 42 -57 -19 -28 -43 58 -29 59 62 -64 0
-12 14 23 41 18 42 57 -19 -28 -43 -58 61 -21 30 45 -63 0
-12 14 17 26 41 -18 -27 42 -57 -19 28 -43 58 45 60 -63 0
-12 14 23 41 18 42 57 -19 28 43 -61 -21 -30 -45 -60 63 0
-12 23 17 26 41 -18 -27 42 -57 19 -43 -58 -61 45 -63 -65 0
14 23 17 26 41 -18 -27 -42 57 -28 43 -58 -30 45 -63 65 0
14 23 17 26 41 -27 42 -57 -19 -28 -43 58 -30 45 63 -65 0
-12 14 23 26 41 -18 -27 -42 57 19 -43 -58 -61 60 -63 -65 0
-12 14 23 26 41 18 -42 -57 -19 -28 -43 58 -61 60 -63 -65 0
-12 23 17 26 41 27 -42 -57 -19 28 58 -61 21 60 -63 -65 0
23 17 26 41 18 -42 57 -19 -28 43 -58 -21 45 60 -63 -65 0
14 23 26 41 18 42 -57 -19 -28 -43 61 -30 45 -60 63 -65 0
14 23 17 41 -18 -27 -42 19 -58 61 -21 -30 45 -60 -63 -65 0
-12 14 23 26 41 -18 42 -19 -28 -43 58 61 -21 -30 45 -60 -63 0
14 23 17 26 41 -27 42 -19 28 58 -61 -21 -30 -45 -60 -63 65 0
14 23 17 26 41 27 57 20 59 62 21 -30 45 -63 66 0
-12 14 17 26 41 42 57 -20 -29 44 -59 -62 -21 30 -45 60 0
-12 14 17 26 41 -18 -27 42 -57 -20 29 -44 59 45 60 -63 0
14 23 17 26 41 -27 57 -20 -29 44 -59 -62 -30 -45 60 63 0
14 23 17 26 41 -18 -27 -42 57 -29 44 -59 -30 45 -63 66 0
-12 14 23 17 41 -18 -27 -42 57 29 -44 -59 -62 60 -63 -66 0
-12 17 26 41 -18 27 57 -20 -29 -44 -59 21 45 60 -63 66 0
-12 14 23 41 18 -27 42 -20 -29 -44 -59 30 45 60 -63 66 0
-12 17 26 41 18 -27 57 -20 -29 -44 -59 30 45 60 -63 66 0
-12 14 23 17 41 27 -42 -57 59 -62 -21 -30 -45 60 -63 -66 0
-12 14 23 17 41 -27 42 -20 -29 44 -59 -62 -21 -30 -45 60 63 0
14 23 17 26 41 -18 -27 -42 -57 20 -29 59 62 -21 45 -63 -66 0
14 17 26 41 -18 -27 -42 -57 -20 -29 44 62 -30 45 60 -63 66 0
14 23 17 26 41 19 43 -20 29 59 -64 30 45 65 66 0
14 23 17 26 41 19 43 20 29 59 -64 30 45 65 -66 0
14 23 17 26 41 28 58 20 59 64 21 30 45 -65 -66 0
14 23 17 26 41 -19 28 43 29 59 64 21 60 -65 66 0
14 23 17 26 41 19 28 43 29 59 -64 21 60 -65 66 0
14 23 17 26 41 19 43 29 44 64 21 30 60 -65 -66 0
-12 14 17 26 41 43 58 -20 -29 44 -59 -64 -21 30 -45 60 0
-12 14 23 26 41 -19 -28 -43 58 20 -29 44 -59 45 60 -65 0
14 23 17 26 41 -28 43 -20 -29 -44 59 -64 -30 45 -60 65 0
14 23 17 26 41 -28 43 -29 44 -59 64 -21 -30 -45 60 -65 0
-12 14 17 26 41 -19 28 -43 58 -20 -29 44 -59 45 60 -66 0
14 23 17 26 41 -19 -28 43 -58 -20 59 -64 -21 -45 60 66 0
14 23 17 26 41 -28 43 -58 -29 44 64 -21 -30 -45 60 -66 0
-12 17 26 41 -19 28 58 -20 -29 -44 -59 21 45 60 -65 66 0
14 23 26 41 -28 43 -58 -20 -29 -44 -64 21 45 -60 65 66 0
-12 14 23 26 41 58 -20 -29 -44 59 -64 21 -45 -60 -65 -66 0
-12 17 26 41 -19 -28 -43 -58 20 -29 59 30 45 60 65 -66 0
-12 14 23 26 41 -19 43 -20 -29 44 -59 -64 -21 -30 -45 60 65 0
23 17 26 41 -19 -28 58 20 -29 44 -59 -64 -21 -30 -45 60 -65 0
14 23 17 26 41 19 -28 58 -20 -29 -44 -59 64 -21 45 -65 -66 0
-12 14 -18 -27 -42 19 28 -43 -61 20 -29 44 62 -30 -63 66 0
-12 14 23 18 -42 -19 -28 -43 -61 29 44 -62 64 -63 -65 66 0
-12 14 23 27 -42 19 43 -61 -20 -29 -44 -62 64 -63 65 -66 0
23 27 -42 -19 -28 61 20 29 44 -64 -21 -30 -45 -63 -65 66 0
-12 14 23 -18 -27 -19 28 43 61 -29 -44 -62 64 21 -63 65 -66 0
-12 14 23 -18 -27 19 -28 43 61 -20 -44 -62 64 30 -63 65 -66 0
-12 14 23 -18 -27 42 -28 43 -61 -29 44 64 21 -45 -63 -65 66 0
-12 14 23 18 -42 -28 43 61 -20 -29 44 -62 -30 45 -63 65 -66 0
-12 14 23 42 -19 -28 -43 -61 -20 29 -62 64 30 45 63 -65 66 0
-12 15 16 -25 46 17 26 -47 18 -27 -48 -53 57 19 -28 58 0
-12 24 16 -25 46 17 -47 52 -27 48 53 -19 -28 49 54 -58 0
-12 15 16 -25 46 17 26 -47 18 -27 57 19 -28 -49 -54 58 0
-12 15 16 -25 46 17 26 -47 -18 -27 -48 53 -57 -28 54 -61 0
-12 15 24 16 -25 17 26 52 18 -48 -53 -57 19 -28 -49 -54 -61 0
-12 24 16 -25 46 17 26 52 -18 -48 53 -57 -19 -28 -49 54 -61 0
-12 15 24 16 -25 46 17 26 18 -48 -53 -57 19 -28 -54 -58 -61 0
-12 15 24 16 -25 17 26 52 18 -27 -48 -53 19 -49 -54 -58 -61 0
-12 24 16 -25 46 17 26 52 -18 -27 -48 53 -19 -49 54 -58 -61 0
-12 15 24 16 -25 46 26 52 -18 -27 53 -57 -19 -49 54 -58 -61 0
-12 15 24 16 -25 17 -47 52 18 -27 48 20 -29 50 -55 -59 0
-12 15 16 -25 46 17 26 -47 -18 -27 -48 53 -57 -29 55 -62 0
-12 24 16 -25 46 17 -47 52 18 -27 20 -29 -50 -55 -59 -62 0
-12 15 16 -25 46 17 26 -47 -27 53 -20 -29 -50 55 -59 -62 0
-12 15 24 16 -25 17 26 52 18 -48 -53 -57 20 -29 -50 -55 -62 0
-12 15 24 16 -25 46 17 26 18 -48 -53 -57 20 -29 -55 -59 -62 0
-12 15 24 16 -25 17 26 52 18 -27 -48 -53 20 -50 -55 -59 -62 0
-12 24 16 -25 46 17 26 52 -18 -27 -48 53 -20 -50 55 -59 -62 0
-12 15 24 16 -25 46 26 52 -18 -27 53 -57 -20 -50 55 -59 -62 0
-12 15 16 -25 46 17 26 -47 18 -27 57 21 -30 -51 -56 60 0
-12 15 16 -25 46 26 -47 52 -27 53 57 -21 -30 -51 56 60 0
-12 24 16 -25 46 17 -47 52 18 -27 -48 -53 -57 21 -30 -63 0
-12 15 16 -25 46 26 -47 52 18 -27 -48 -53 -57 21 -30 -63 0
-12 15 24 16 -25 46 26 52 -18 -48 53 -57 -21 -30 56 -60 -63 0
-12 24 16 -25 46 17 26 52 -18 -27 -48 53 -21 -51 56 -60 -63 0
-12 15 24 16 -25 46 17 26 18 -27 -53 -57 21 -51 -56 -60 -63 0
-12 15 24 16 -25 17 -47 52 19 -28 49 -54 -58 20 -29 50 0
-12 24 16 -25 46 17 -47 52 -28 49 54 -20 -29 50 55 -59 0
-12 24 16 -25 46 17 -47 52 19 -28 -49 -54 -58 20 -29 -64 0
-12 15 16 -25 46 17 26 -47 -19 -28 -49 54 -58 -29 55 -64 0
-12 24 16 -25 46 17 -47 52 19 -28 20 -29 -50 -55 -59 -64 0
-12 15 16 -25 46 17 26 -47 -28 54 -20 -29 -50 55 -59 -64 0
-12 24 16 -25 46 17 26 52 -19 -49 54 -58 -20 -29 -50 55 -64 0
-12 15 24 16 -25 46 17 26 19 -28 -54 -58 20 -50 -55 -59 -64 0
-12 15 24 16 -25 46 26 52 -19 -28 54 -58 -20 -50 55 -59 -64 0
-12 24 16 -25 46 17 26 28 49 58 21 51 56 60 65 0
-12 24 16 -25 46 17 -47 52 19 -28 -49 -54 -58 21 -30 -65 0
-12 15 16 -25 46 26 -47 52 19 -28 -49 -54 -58 21 -30 -65 0
-12 24 16 -25 46 17 -47 52 19 -28 21 -30 -51 -56 -60 -65 0
-12 15 24 16 -25 46 26 52 -19 -28 54 -58 -21 -51 56 -60 -65 0
-12 24 16 -25 46 17 -47 52 -29 50 55 -21 -30 51 56 -60 0
-12 15 16 -25 46 17 26 -47 -20 -29 -50 55 -59 -30 56 -66 0
-12 24 16 -25 46 17 -47 52 20 -29 21 -30 -51 -56 -60 -66 0
-12 15 24 16 -25 17 26 52 20 -50 -55 -59 21 -30 -51 -56 -66 0
-12 15 24 16 -25 -18 -27 -48 53 -28 49 -61 20 -29 50 -55 0
-12 15 24 16 46 -18 -27 -48 53 49 54 -61 -20 29 50 -55 0
-12 15 24 16 -25 46 -18 -27 -48 19 -28 -54 61 -29 50 -62 0
-12 15 24 16 -25 46 -18 -27 -48 -28 49 -61 20 -29 -55 62 0
-12 15 16 -25 46 18 -27 -48 -53 19 -28 -61 29 -50 55 -62 0
-12 15 24 16 -25 -27 48 19 -28 49 -54 -20 -29 -50 55 -62 0
-12 15 24 16 -25 46 18 -27 -53 -19 -28 -49 61 -29 50 -64 0
-12 15 24 16 -25 46 -27 48 -19 -28 -49 -61 20 -29 -55 64 0
-12 15 24 16 -25 46 -27 48 -28 -49 -54 -61 -20 -29 55 64 0
-12 15 24 16 -25 46 -18 27 48 -28 -49 -54 61 50 62 -64 0
-12 15 24 16 -25 46 18 -27 -53 -28 49 -20 -29 -50 62 -64 0
-12 15 24 16 -25 46 -27 48 19 -28 -54 -20 -29 -50 -62 64 0
24 -25 46 -18 -27 -48 -53 -19 -49 54 -61 20 29 50 62 -64 0
-12 15 24 16 -25 46 48 -28 -49 -54 -61 -20 29 50 62 64 0
-12 15 24 16 -25 46 -27 48 -19 -28 54 -29 -50 -55 -62 64 0
-12 15 24 16 -25 46 -18 -27 -48 49 -61 29 50 -55 62 64 0
-12 15 24 16 -25 46 48 -19 -28 -49 -61 29 50 -55 62 64 0
-12 15 24 16 46 18 -27 -48 -53 28 49 54 -61 -20 -55 -62 64 0
-12 15 24 -25 46 18 -27 48 -19 -28 49 -54 -20 -50 55 62 -64 0
15 24 16 -25 46 -18 -53 19 28 49 61 -20 -29 -50 55 -62 -64 0
-12 15 24 16 -25 46 -18 -27 -48 19 -28 -54 61 -30 51 -63 0
-12 15 24 16 -25 46 -27 -48 -53 -19 -28 54 61 -30 51 -63 0
-12 15 16 -25 46 27 -48 53 19 -28 -49 -54 -61 21 -30 -65 0
-12 15 24 16 -25 46 18 -27 -53 -19 -28 -49 61 -30 51 -65 0
-12 15 24 16 -25 46 -18 -27 53 -28 -49 -54 61 -30 51 -65 0
15 24 16 -25 46 18 -27 -48 -53 -19 28 -49 -61 21 -63 -65 0
-12 15 24 16 -25 46 -27 -48 -53 -19 28 49 61 51 -63 65 0
-12 15 24 16 -25 46 27 48 -53 -19 -28 -49 61 51 63 -65 0
-12 15 24 16 -25 46 -18 -27 -48 28 49 -54 61 51 -63 65 0
-12 15 24 16 -25 46 -18 27 48 -28 -49 -54 61 51 63 -65 0
-12 15 24 16 -25 46 18 -27 -53 -28 49 -21 -30 -51 63 -65 0
-12 15 24 16 -25 46 48 -28 -49 -54 -61 -21 30 51 63 65 0
-12 15 24 16 46 27 -48 -53 -19 -28 -49 54 -61 56 -63 -65 0
-12 15 24 -25 46 -27 48 53 -19 -28 -49 -54 -30 56 -63 65 0
-12 15 24 46 18 -27 48 -19 -28 -49 -54 30 51 56 -63 65 0
-12 15 24 16 -25 46 48 -19 -28 -49 -61 30 51 -56 63 65 0
-12 15 24 16 -25 46 48 -19 28 49 61 -30 -51 -56 -63 65 0
-12 15 24 -25 46 18 -48 -53 -28 49 54 61 -21 -30 51 -56 -63 0
15 24 16 -25 46 -18 -53 -19 -28 -49 54 -61 21 30 51 63 -65 0
-12 15 24 16 46 -18 -53 28 49 54 61 21 -30 -51 -56 -63 -65 0
-12 15 24 16 -25 -27 48 -20 -29 -50 55 -62 21 -30 51 -56 0
-12 15 24 16 -25 46 18 -48 -53 29 50 -55 -62 21 51 -63 0
-12 15 24 16 -25 46 -18 -27 -48 20 -29 -55 62 -30 51 -63 0
-12 15 24 16 -25 46 -27 -48 -53 -20 -29 55 62 -30 51 -63 0
15 24 -25 46 18 27 48 -20 -29 -50 -55 62 -30 51 56 -63 0
-12 15 16 -25 46 27 -48 53 20 -29 -50 -55 -62 21 -30 -66 0
-12 15 24 16 -25 46 -18 -27 53 -29 -50 -55 62 -30 51 -66 0
-12 15 24 16 -25 46 -27 48 -20 -29 -50 -62 21 -30 -56 66 0
15 24 16 -25 46 18 -27 -48 -53 -20 29 -50 -62 21 -63 -66 0
15 24 16 -25 46 -18 27 -48 20 -29 -50 -55 -62 21 -63 -66 0
-12 15 24 16 -25 46 -27 -48 -53 -20 29 50 62 51 -63 66 0
-12 15 24 16 -25 46 27 48 -53 -20 -29 -50 62 51 63 -66 0
-12 15 24 16 -25 46 -18 -27 -48 29 50 -55 62 51 -63 66 0
-12 15 24 16 -25 46 -18 27 48 -29 -50 -55 62 51 63 -66 0
-12 15 24 16 -25 46 -27 48 -20 -29 55 -30 -51 -56 -63 66 0
-12 15 24 46 18 -27 48 -20 -29 -50 -55 30 51 56 -63 66 0
-12 15 24 16 -25 46 48 -20 -29 -50 -62 30 51 -56 63 66 0
15 24 16 -25 46 19 -28 -49 -54 -20 29 50 -55 21 51 -65 0
-12 15 24 16 -25 46 -19 -28 54 -29 -50 -55 64 -30 51 -66 0
-12 15 24 16 -25 46 49 54 -20 -50 55 -64 -21 30 51 -66 0
-12 15 24 -25 46 19 -28 49 -20 -29 -50 -55 21 -30 -65 66 0
-12 15 24 16 -25 46 -28 -49 -54 -20 29 50 64 51 -65 66 0
-12 15 24 16 -25 46 28 49 -54 -20 -29 -50 64 51 65 -66 0
-12 15 24 16 -25 46 -19 -28 -49 29 50 -55 64 51 -65 66 0
-12 15 24 16 -25 46 -19 28 49 -29 -50 -55 64 51 65 -66 0
-12 15 24 16 -25 46 -28 49 20 -29 -55 -21 -30 -51 -65 66 0
-12 15 24 -25 46 -28 49 54 -20 -29 -50 -55 -30 56 -65 66 0
15 24 -25 46 -19 -28 -49 -54 29 50 -55 21 51 56 65 -66 0
-12 15 24 16 -25 46 -19 -49 54 -20 -29 50 -64 -30 51 65 -66 0
15 24 16 -25 46 -19 -28 -49 54 -20 -55 -64 21 30 51 -65 66 0
-12 15 16 -25 46 49 -54 -20 -29 -50 55 -64 21 30 51 65 -66 0
-12 15 16 -25 46 19 28 49 -20 -29 -50 55 -64 51 -56 65 -66 0
15 24 16 -25 46 -19 -54 20 29 50 64 -21 -30 -51 56 -65 -66 0
-12 17 26 -47 -18 -48 -57 -19 -28 -49 -61 -29 -50 -59 -64 0
-12 15 24 17 -47 -18 -27 -48 -57 19 -28 58 61 -29 -62 64 0
-12 15 24 26 -47 -18 -27 -48 -57 19 49 -58 61 -59 -62 64 0
-12 15 24 17 -47 -18 -27 -48 -57 28 49 -58 61 -59 -62 64 0
-12 15 24 26 -47 -18 -19 -28 -49 -58 -61 -20 29 59 62 64 0
-12 15 24 17 -47 -27 -19 -28 -49 -58 -61 20 -29 59 62 64 0
-12 24 17 26 -47 -48 -19 -28 -49 -58 -61 20 -50 59 62 64 0
-12 15 24 26 -47 -57 -19 -28 -49 -58 -61 20 50 -59 62 64 0
-12 15 17 26 -47 -48 -19 -28 -49 -58 -61 29 -50 59 62 64 0
-12 15 24 17 -47 -57 -19 -28 -49 -58 -61 29 50 -59 62 64 0
-12 24 17 26 -47 -18 27 48 -19 61 -20 -29 -50 -59 62 -64 0
-12 24 17 26 -47 -18 -19 28 49 61 -20 -29 -50 -59 -62 64 0
-12 15 24 26 -47 -18 -19 28 58 61 -20 -29 -50 -59 -62 64 0
-12 15 24 17 -47 -27 19 -28 58 61 -20 -29 -50 -59 -62 64 0
-12 24 17 26 -47 -48 19 -49 58 61 -20 -29 -50 -59 -62 64 0
-12 15 24 26 -47 -57 19 49 -58 61 -20 -29 -50 -59 -62 64 0
-12 15 17 26 -47 -48 28 -49 58 61 -20 -29 -50 -59 -62 64 0
-12 24 17 26 -47 -18 27 48 -19 -28 -49 -58 61 -21 63 -65 0
-12 15 24 26 -47 -18 27 57 -19 -28 -49 -58 61 -21 63 -65 0
-12 15 17 26 -47 -18 -27 -48 -57 19 -28 49 61 -30 -63 65 0
-12 15 24 17 -47 18 -27 57 -19 -28 -49 -58 61 -30 63 -65 0
-12 24 17 26 -47 -18 -27 -48 -57 19 -49 58 61 -51 -63 65 0
-12 15 17 26 -47 -18 -27 -48 -57 28 -49 58 61 -51 -63 65 0
-12 24 17 26 -47 18 -48 57 -19 -28 -49 -58 61 -51 63 -65 0
-12 15 17 26 -47 27 -48 57 -19 -28 -49 -58 61 -51 63 -65 0
15 17 -47 -18 -27 -48 -57 19 28 58 61 -21 -30 51 -63 -65 0
-12 15 24 26 -47 -18 -27 -48 -57 19 49 -58 61 -60 -63 65 0
-12 15 24 17 -47 -18 -27 -48 -57 28 49 -58 61 -60 -63 65 0
-12 15 24 26 -47 18 48 -57 -19 -28 -49 -58 61 -60 63 -65 0
-12 15 24 26 -47 -57 -19 -28 -49 -58 -61 21 51 -60 63 65 0
-12 15 24 26 -47 -18 -19 28 58 61 -21 -30 -51 -60 -63 65 0
-12 15 17 26 -47 -48 28 -49 58 61 -21 -30 -51 -60 -63 65 0
-12 15 24 17 -47 -57 28 49 -58 61 -21 -30 -51 -60 -63 65 0
-12 15 24 26 -47 -18 -27 -48 -57 -20 29 59 62 -21 -63 66 0
-12 15 24 17 -47 -18 -27 -48 -57 20 -29 59 62 -30 -63 66 0
-12 15 17 26 -47 18 -27 48 -20 -29 -50 -59 62 -30 63 -66 0
-12 24 17 26 -47 -18 -27 -48 -57 20 -50 59 62 -51 -63 66 0
-12 15 17 26 -47 -18 -27 -48 -57 29 -50 59 62 -51 -63 66 0
-12 15 17 26 -47 27 -48 57 -20 -29 -50 -59 62 -51 63 -66 0
-12 15 24 26 -47 -18 -27 -48 -57 20 50 -59 62 -60 -63 66 0
-12 15 24 17 -47 -27 -20 -29 -50 -59 -62 21 -30 60 63 66 0
-12 24 17 26 -47 -48 -20 -29 -50 -59 -62 21 -51 60 63 66 0
-12 15 -47 -18 27 57 -20 -29 -50 -59 62 -21 51 60 63 -66 0
-12 15 24 17 -47 -57 -20 -29 -50 -59 -62 30 51 -60 63 66 0
-12 15 24 26 -47 -18 -20 29 59 62 -21 -30 -51 -60 -63 66 0
-12 15 17 26 -27 -48 -57 -20 29 50 59 62 -21 -30 -51 -63 66 0
15 17 26 -47 -27 -48 -57 20 29 50 -59 62 -21 -30 -51 -63 66 0
-12 15 24 17 -18 27 48 57 -20 -29 -59 62 -30 -51 -60 63 -66 0
-12 15 17 26 -18 -27 -48 -20 29 50 59 62 -30 -51 -60 -63 66 0
-12 24 17 26 -47 -19 -28 -49 -58 -20 29 50 64 -21 -65 66 0
-12 15 24 26 -47 -19 -28 -49 -58 -20 29 59 64 -21 -65 66 0
-12 24 17 26 -47 -19 28 49 -20 -29 -50 -59 64 -21 65 -66 0
-12 15 24 26 -47 -19 28 58 -20 -29 -50 -59 64 -21 65 -66 0
-12 15 17 26 -47 -19 -28 -49 -58 20 -29 50 64 -30 -65 66 0
-12 15 24 17 -47 -19 -28 -49 -58 20 -29 59 64 -30 -65 66 0
-12 15 17 26 -47 19 -28 49 -20 -29 -50 -59 64 -30 65 -66 0
-12 15 24 17 -47 19 -28 58 -20 -29 -50 -59 64 -30 65 -66 0
-12 24 17 26 -47 -19 -28 -49 -58 20 -50 59 64 -51 -65 66 0
-12 15 17 26 -47 -19 -28 -49 -58 29 -50 59 64 -51 -65 66 0
-12 24 17 26 -47 19 -49 58 -20 -29 -50 -59 64 -51 65 -66 0
-12 15 17 26 -47 28 -49 58 -20 -29 -50 -59 64 -51 65 -66 0
-12 15 24 26 -47 -19 -28 -49 -58 20 50 -59 64 -60 -65 66 0
-12 15 24 26 -47 19 49 -58 -20 -29 -50 -59 64 -60 65 -66 0
-12 15 24 17 -47 28 49 -58 -20 -29 -50 -59 64 -60 65 -66 0
-12 15 17 26 -47 -28 20 -29 50 64 -21 -30 -51 -60 -65 66 0
-12 15 24 26 -47 19 49 -58 -59 64 -21 -30 -51 -60 65 -66 0
-12 15 24 26 -47 -19 -20 29 59 64 -21 -30 -51 -60 -65 66 0
-12 24 17 26 -19 -49 -58 20 -29 50 59 64 -21 -30 -51 -65 66 0
-12 15 24 26 19 -28 49 58 -20 -50 -59 64 -21 -30 -60 65 -66 0
15 24 17 -47 -28 -49 -58 20 29 -50 59 64 -21 -30 -60 -65 66 0
-12 24 17 26 -47 -19 49 58 -20 -29 -50 59 -21 -51 60 65 -66 0
-12 15 17 26 -19 28 49 58 -20 -29 -50 64 -30 -51 -60 65 -66 0
-12 15 24 17 -19 -28 -58 -20 29 50 59 64 -30 -51 -60 -65 66 0
-12 15 24 48 -19 -49 -61 20 -29 50 62 64 -21 30 51 -65 0
-12 15 24 -18 -27 -48 19 49 61 -20 29 50 -64 51 -63 65 0
-12 15 24 -18 -27 -48 28 49 61 20 -29 50 -64 51 -63 65 0
15 -18 -27 -19 -28 -49 -61 20 29 50 -62 64 21 -51 63 -65 0
24 -18 -27 -48 -19 -49 -61 20 29 50 62 -64 -30 51 -63 65 0
-12 15 24 48 -19 28 49 61 -29 -50 -62 64 21 -30 51 -66 0
-12 15 24 -18 27 48 -19 -49 -61 20 -29 50 64 51 -65 66 0
24 -18 -27 28 -49 61 20 29 50 -62 -21 -30 -51 -63 -65 66 0
-12 15 24 -18 -27 -28 -49 -61 -20 29 50 62 64 21 -63 -65 66 0
-12 15 24 -18 -48 19 -28 49 61 -20 -29 -62 64 30 -63 65 -66 0
-12 15 24 -18 -48 -19 -28 -61 20 -29 50 62 64 30 -63 -65 66 0
-12 15 24 27 19 -28 49 61 -20 -50 -62 64 -21 -30 -63 65 -66 0
-12 15 24 27 48 -19 -28 -49 -61 -20 29 62 64 51 63 -65 -66 0
-12 15 24 48 19 -28 -61 -20 -29 -50 -62 64 21 51 63 65 -66 0
-12 15 24 -18 27 -19 -28 -49 61 50 -62 -64 30 51 63 -65 66 0
-12 15 24 27 -19 -49 -61 -20 -29 -62 -64 21 -30 51 63 65 66 0
-12 16 -25 17 26 52 -18 -27 53 -19 54 -58 61 -29 55 59 0
-12 16 -25 17 26 52 -27 -53 -57 -28 58 -61 -20 -29 55 62 0
-12 16 -25 17 26 52 -27 -53 -57 -19 -28 54 61 -29 59 -62 0
16 -25 17 26 52 18 57 -19 28 -54 58 20 -29 -55 -59 -62 0
-12 16 -25 26 52 -27 57 -19 -28 54 58 20 -29 -55 -59 -62 0
-12 16 -25 17 26 52 -27 57 -19 -28 -58 -61 20 -29 -55 64 0
-12 16 -25 17 26 52 -27 57 -28 -54 -58 -61 -20 -29 55 64 0
-12 16 -25 17 26 52 -18 -27 53 -28 -54 -58 61 -29 59 -64 0
-12 16 17 26 52 27 -53 -57 -19 -28 54 -58 -61 55 -62 -64 0
-12 16 -25 17 26 52 -27 57 19 -28 -54 -20 -29 -59 -62 64 0
-12 16 -25 17 26 52 -27 -53 -57 58 -61 -20 29 59 62 64 0
-12 16 -25 17 26 52 57 -28 -54 -58 -61 -20 29 59 62 64 0
-12 16 -25 17 26 52 -27 57 -19 -28 54 -29 -55 -59 -62 64 0
-12 16 -25 17 26 52 -18 -27 53 -28 58 -29 -55 -59 62 -64 0
-12 16 -25 17 26 52 -18 -27 -57 58 -61 29 -55 59 62 64 0
-12 16 -25 17 26 52 57 -19 -28 -58 -61 29 -55 59 62 64 0
-12 16 -25 17 26 52 57 -19 28 58 61 -29 -55 -59 -62 64 0
-12 16 -25 26 52 18 27 53 -19 54 -58 -61 -20 -29 55 -59 -64 0
-12 16 17 26 52 -18 -27 53 -57 -19 -28 -54 58 -29 59 62 -64 0
-12 16 17 26 52 18 -27 -53 -57 -19 -54 -61 29 55 59 -62 64 0
-12 16 -25 17 52 -53 57 19 28 58 61 -20 -29 55 -59 -62 -64 0
-12 16 17 26 -18 -27 -53 -28 -54 -58 -61 -20 29 55 59 62 64 0
-12 16 17 26 52 53 57 -19 -28 54 -58 -61 -21 30 -56 60 0
-12 16 -25 26 52 18 -27 -53 -57 -19 -28 54 58 -30 60 -63 0
-12 16 -25 17 26 52 -18 -27 -57 19 -28 -54 61 -30 60 -63 0
-12 16 -25 17 26 52 -27 -53 -57 -19 -28 54 61 -30 60 -63 0
-12 16 17 26 52 -18 -27 53 -57 -19 28 -54 58 56 60 -63 0
-12 16 -25 26 52 -27 57 -19 -28 54 58 21 -30 -56 -60 -63 0
-12 16 17 26 52 53 57 -19 28 -54 58 -21 -30 56 -60 -63 0
-12 16 -25 26 52 -18 -27 53 57 19 -28 -54 -58 -30 60 -65 0
-12 16 -25 17 26 52 18 -27 -53 -19 -28 -58 61 -30 60 -65 0
-12 16 -25 17 26 52 -18 -27 53 -28 -54 -58 61 -30 60 -65 0
-12 16 -25 17 52 -27 53 -19 -28 54 -58 -61 21 30 -60 -65 0
-12 16 17 26 52 -18 -27 53 -57 28 -54 -58 -61 56 -63 -65 0
-12 16 17 26 52 27 -53 -57 -19 -28 54 -58 -61 56 -63 -65 0
-12 16 -25 17 26 52 27 -53 57 -19 -28 -58 61 60 63 -65 0
-12 16 -25 17 26 52 -18 -27 -57 28 -54 58 61 60 -63 65 0
-12 16 -25 17 26 52 18 -27 -53 -28 58 -21 -30 -60 63 -65 0
-12 16 -25 17 52 18 -27 19 -28 -54 -58 21 30 -60 63 65 0
-12 16 -25 17 26 52 57 -28 -54 -58 -61 -21 30 60 63 65 0
-12 16 -25 17 26 52 57 -19 28 58 61 -30 -56 -60 -63 65 0
16 17 26 52 -18 27 57 -19 -54 58 61 -30 -56 -60 63 -65 0
-12 16 17 26 -27 -53 -57 -19 28 54 58 61 -21 -30 -56 -63 65 0
-12 16 -25 17 52 18 -27 -53 -57 28 54 58 -61 -21 60 -63 65 0
-12 16 -25 17 -27 -53 -57 -19 28 54 58 61 -21 -30 60 -63 65 0
-12 16 17 26 -18 -27 -53 -19 28 54 58 61 -30 -56 -60 -63 65 0
-12 16 17 26 52 -18 -53 28 54 58 61 21 -30 -56 -60 -63 -65 0
16 -25 17 26 52 18 -27 -53 -57 -20 29 -55 59 21 60 -63 0
-12 16 -25 26 52 18 -27 -53 -57 -20 -29 55 59 -30 60 -63 0
-12 16 -25 17 26 52 -18 -27 -57 20 -29 -55 62 -30 60 -63 0
-12 16 -25 17 26 52 -18 -27 53 -29 -55 -59 62 -30 60 -66 0
-12 16 -25 17 26 52 53 57 -20 55 -59 -62 -21 30 60 -66 0
-12 -25 17 26 52 18 -27 57 -20 -29 -55 -59 21 -30 -63 66 0
-12 16 17 26 52 27 -53 -57 -20 -29 55 -59 -62 56 -63 -66 0
-12 16 -25 17 26 52 -27 -53 -57 -20 29 59 62 60 -63 66 0
-12 16 -25 17 26 52 27 -53 57 -20 -29 -59 62 60 63 -66 0
-12 16 -25 17 26 52 -18 -27 -57 29 -55 59 62 60 -63 66 0
-12 16 -25 17 26 52 -27 57 -20 -29 55 -30 -56 -60 -63 66 0
-12 16 17 26 52 18 -27 -53 -57 29 55 59 -62 -21 -56 -63 66 0
-12 16 -25 17 26 52 -19 -28 -58 -29 59 -64 21 -30 -56 65 0
-12 16 -25 26 52 19 -28 -54 -58 -20 -29 55 59 -30 60 -65 0
-12 16 -25 26 52 -28 58 -20 -29 55 59 21 -30 -56 -60 -65 0
-12 16 -25 17 26 52 28 -54 58 20 -55 -59 -64 21 60 -66 0
-12 16 -25 26 52 -19 -28 54 58 20 -29 -55 -59 -30 60 -66 0
-12 16 -25 17 26 52 19 -28 -54 -20 -29 -59 64 -30 60 -66 0
-12 -25 17 26 52 -19 -28 -54 -58 20 -29 59 21 -30 65 -66 0
-12 16 -25 17 26 52 -28 -54 -58 -20 29 59 64 60 -65 66 0
-12 16 -25 17 26 52 28 -54 58 -20 -29 -59 64 60 65 -66 0
-12 16 -25 17 26 52 -19 -28 -58 29 -55 59 64 60 -65 66 0
-12 16 -25 17 26 52 -19 28 58 -29 -55 -59 64 60 65 -66 0
-12 16 17 26 52 28 54 58 20 -29 -55 -59 -64 -21 -56 65 -66 0
-12 -25 17 26 52 -19 -28 -54 58 -20 -29 55 -59 21 60 -65 66 0
-12 16 -25 17 52 28 54 58 20 -29 -55 -59 -64 -21 60 65 -66 0
-12 -25 17 26 52 19 -28 -54 -58 -20 -29 -55 59 56 60 65 -66 0
-12 16 -25 17 26 52 19 -54 -58 -29 59 64 -30 -56 60 -65 -66 0
-12 -25 -18 53 -28 -54 -61 -20 -29 -62 -64 -21 -30 -56 63 0
-12 -25 -27 -53 -19 54 -61 -20 -29 -62 -64 -21 -30 -56 65 0
-12 -25 -27 -53 19 -54 -61 -20 -29 -55 64 -21 -30 -63 -65 0
-12 -25 -18 53 -19 -28 -61 -20 -29 -55 62 -30 -56 -63 -65 0
-12 -25 -18 -27 -19 54 -61 -20 -29 -55 64 -30 -56 -63 -65 0
-12 -25 -18 -27 -19 -28 -54 -20 55 -62 64 -30 -56 -63 -66 0
-12 -25 -18 -27 -53 -54 -61 -20 -29 -55 64 -21 -63 -65 66 0
-12 -25 -18 -27 -53 -19 -28 -54 -55 -62 64 -21 -63 65 -66 0
-12 16 -25 -53 -28 -54 -61 -20 55 -62 -21 -30 -63 -65 -66 0
-12 -25 -18 -27 -53 -19 -28 -54 -20 -62 64 -56 -63 65 -66 0
-12 -25 -27 -53 -19 -28 -54 -20 -29 -62 -21 -56 63 -65 66 0
-12 -25 -27 -53 -19 -28 -54 -20 -29 -62 21 -56 -63 -65 66 0
-12 -25 -18 -27 -53 -19 -28 -29 -55 -64 21 -56 -63 65 -66 0
-12 26 -18 -27 -57 -19 28 58 61 20 29 -59 -62 -21 -63 65 0
-12 17 26 27 57 -19 -28 -58 61 20 -59 -62 -64 63 -65 -66 0
-12 17 26 18 -57 28 58 -61 -20 -29 -59 -62 64 -63 65 -66 0
-12 17 26 28 58 61 -20 -29 -59 -62 64 21 -60 -63 -65 -66 0
-12 17 26 -18 -27 57 -28 58 -20 -59 62 64 -21 -30 60 65 -66 0
-12 17 26 -18 -57 19 -28 58 61 -20 -29 -62 64 30 -63 65 -66 0
-12 17 26 -18 -27 57 58 -61 -20 29 -59 64 -21 60 -63 65 -66 0
-12 17 26 -18 -27 57 -19 28 -58 59 -62 64 -21 60 -63 -65 66 0
-12 17 26 -18 57 -19 -28 58 -61 -20 59 62 30 -60 -63 -65 66 0
-12 17 26 -18 -27 57 -19 58 -20 59 -62 64 30 -60 -63 65 -66 0
-12 17 26 27 -19 -58 -61 -20 -29 -62 -64 21 -30 60 63 65 66 0
-13 31 15 32 -39 16 -40 46 -18 -35 -42 -48 53 -43 54 -61 0
-13 31 15 32 -39 16 -40 46 -42 53 -19 -36 -43 -49 54 -61 0
14 31 32 -39 16 33 -40 46 -18 -42 -48 53 -19 -36 -49 54 -61 0
14 31 15 32 -39 16 -40 46 -35 -42 48 -53 -19 -36 49 -54 -61 0
14 31 15 -39 16 33 -40 46 -35 -42 -48 53 -19 -36 -49 54 -61 0
14 31 32 -39 16 33 -40 46 -18 -35 -48 53 -19 -43 -49 54 -61 0
-13 14 15 32 -39 33 -40 46 18 -35 -42 48 -53 20 -44 50 0
-13 31 15 32 -39 16 -40 46 -18 35 -42 48 -53 37 -44 50 0
-13 14 32 -39 16 33 -40 46 18 -35 -42 -48 53 20 -44 55 0
-13 31 15 -39 16 33 -40 46 -18 35 -42 -48 53 37 -44 55 0
-13 31 15 -39 16 33 -40 46 35 -42 53 -20 37 -44 -50 55 0
-13 31 15 32 -39 33 -40 46 -18 35 -42 48 20 -44 50 -62 0
-13 31 15 32 -39 16 -40 46 -18 -35 -42 -48 53 -44 55 -62 0
14 15 -39 16 33 46 -18 -35 -42 -48 53 -20 -37 44 -55 -62 0
-13 14 32 -39 16 33 -40 46 -42 48 -20 -37 -44 50 -55 -62 0
14 31 32 -39 16 33 -40 46 -18 -42 -48 53 -20 -37 -50 55 -62 0
14 31 15 32 -39 16 -40 46 -35 -42 48 -53 -20 -37 50 -55 -62 0
14 31 15 -39 16 33 -40 46 -35 -42 -48 53 -20 -37 -50 55 -62 0
14 31 32 -39 16 33 -40 46 -18 -35 -48 53 -20 -44 -50 55 -62 0
14 31 15 32 -39 16 -40 46 -18 -35 48 -53 -37 -44 50 -55 -62 0
-13 31 15 -39 16 33 -40 46 -18 -35 -42 48 -53 -45 51 -63 0
-13 14 32 -39 16 33 -40 46 -18 -35 -42 48 -53 -45 51 -63 0
14 15 32 16 -40 46 -18 -35 -42 48 -53 -21 -38 45 -51 -63 0
-13 31 15 32 -39 16 -40 46 -18 -35 -42 -48 53 -45 56 -63 0
-13 14 32 -39 16 33 -40 46 -42 48 -21 -38 -45 51 -56 -63 0
-13 14 32 -39 -40 46 18 35 -42 48 -21 -38 -45 51 -56 -63 0
14 31 32 -39 16 33 -40 46 -18 -35 -48 53 -21 -45 -51 56 -63 0
-13 14 32 -39 16 33 -40 46 19 -36 -43 -49 54 20 -44 55 0
-13 31 15 32 -39 16 -40 46 -19 -36 -43 -49 54 -44 55 -64 0
-13 14 15 -39 16 33 -40 46 36 -43 54 20 -37 -44 55 -64 0
-13 31 15 -39 16 33 -40 46 -43 49 -20 -37 -44 50 -55 -64 0
-13 14 32 -39 16 33 -40 46 -43 49 -20 -37 -44 50 -55 -64 0
-13 31 15 32 -39 16 -40 46 -43 54 -20 -37 -44 -50 55 -64 0
14 31 15 -39 16 33 -40 46 -36 -43 -49 54 -20 -37 -50 55 -64 0
14 31 32 -39 16 33 -40 46 -19 -36 -49 54 -20 -44 -50 55 -64 0
14 31 15 32 -39 16 -40 46 -19 -36 49 -54 -37 -44 50 -55 -64 0
-13 31 15 -39 16 33 -40 46 -19 36 -43 -49 54 38 -45 56 0
-13 31 15 32 -39 16 -40 46 -19 -36 -43 -49 54 -45 56 -65 0
-13 31 15 -39 16 33 -40 46 -43 49 -21 -38 -45 51 -56 -65 0
14 31 15 32 -39 16 -40 46 -36 -43 49 -54 -21 -38 51 -56 -65 0
14 15 32 16 33 -40 46 37 44 -55 21 38 45 51 66 0
31 15 32 -39 16 33 46 20 44 -50 21 38 45 56 66 0
-13 31 15 -39 16 33 -40 46 -20 37 -44 -50 55 38 -45 56 0
-13 14 15 32 -39 33 -40 46 20 -44 50 21 -38 -45 51 -56 0
-13 31 15 -39 16 33 -40 46 -20 -37 -44 50 -55 -45 51 -66 0
-13 31 15 32 -39 16 -40 46 -20 -37 -44 -50 55 -45 56 -66 0
-13 31 15 -39 16 33 -40 46 -44 50 -21 -38 -45 51 -56 -66 0
-13 31 15 32 -39 16 -40 46 -44 55 -21 -38 -45 -51 56 -66 0
14 31 15 32 -39 16 -40 46 -37 -44 50 -55 -21 -38 51 -56 -66 0
14 31 15 32 -39 16 -40 46 -20 -37 50 -55 -38 -45 51 -56 -66 0
-13 14 31 15 -39 17 -34 41 -47 18 -35 48 -57 19 -36 43 0
-13 14 31 15 -39 17 -34 41 -47 35 42 -48 -57 19 43 -49 0
-13 14 31 15 -39 17 -34 41 -47 18 -35 42 19 -36 49 -58 0
-13 14 31 15 -39 17 -34 41 -47 18 42 -48 36 43 -49 -58 0
-13 14 31 15 -39 17 41 -47 18 -35 42 -48 36 43 -49 -61 0
-13 14 31 32 -39 17 41 -47 -48 57 -19 -36 -43 -49 58 -61 0
-13 14 31 15 -39 17 -34 -47 18 -35 -42 -48 -57 19 36 -49 58 0
-13 14 31 15 -39 -34 41 -47 -18 -35 42 -48 -57 -36 43 49 58 0
-13 14 31 15 -39 17 -34 -47 18 35 -48 -57 19 -36 43 -49 -58 0
-13 14 31 15 -39 17 -34 -47 18 35 -48 57 19 -36 -43 -49 -58 0
-13 14 31 15 -39 -34 41 -47 -35 42 48 -57 19 -36 43 -49 -58 0
-13 14 31 15 -39 -34 41 -47 -35 42 48 57 -19 -36 43 -49 -58 0
-13 14 31 15 -39 17 -34 41 -47 18 -35 -48 -57 19 36 -49 -61 0
-13 14 31 15 -39 17 -34 41 -47 18 35 -48 19 -36 -49 -58 -61 0
14 31 15 32 -39 -34 41 -47 -18 -35 42 -57 19 43 -49 -58 -61 0
-13 14 31 15 -39 17 -34 41 -47 -35 42 48 -36 43 -49 -58 -61 0
-13 14 31 15 -39 17 -34 41 -47 18 -35 48 -57 20 -37 44 0
-13 14 31 15 -39 17 -34 41 -47 35 42 -48 -57 20 44 -50 0
-13 14 31 32 -39 17 41 -47 -18 35 42 -48 -57 37 44 -50 0
-13 14 31 15 -39 17 -34 41 -47 18 -35 42 20 -37 50 -59 0
-13 14 31 15 -39 17 -34 41 -47 18 42 -48 37 44 -50 -59 0
-13 14 15 32 -39 17 -34 41 -35 57 -20 -37 -44 -50 59 -62 0
-13 14 31 15 -39 17 -34 -47 18 -35 -42 -48 -57 20 37 -50 59 0
-13 14 31 15 -39 17 -34 -47 18 -35 42 -48 -57 20 37 -50 -59 0
-13 14 31 15 -39 -34 41 -47 -18 -35 42 -48 -57 -37 44 50 59 0
-13 14 31 15 -39 -34 41 -47 18 -35 42 -48 -57 -37 44 50 -59 0
-13 14 31 15 -39 17 -34 -47 18 35 -48 -57 20 -37 44 -50 -59 0
-13 14 31 15 -39 17 -34 -47 18 35 -48 57 20 -37 -44 -50 -59 0
-13 14 31 15 -39 -34 41 -47 -35 42 48 -57 20 -37 44 -50 -59 0
-13 14 31 15 -39 -34 41 -47 -35 42 48 57 -20 -37 44 -50 -59 0
-13 14 31 15 -39 17 -34 41 -47 18 -35 -48 -57 20 37 -50 -62 0
-13 14 31 15 -39 17 -34 41 -47 -35 42 -48 -57 -37 44 50 -62 0
14 31 15 32 -39 -34 41 -47 -18 -35 42 -57 20 44 -50 -59 -62 0
-13 14 31 15 -39 17 -34 41 -47 -35 42 48 -37 44 -50 -59 -62 0
-13 14 31 15 -39 17 -34 41 18 -35 42 -48 21 -38 51 -63 0
-13 14 32 -39 17 -34 18 -35 -42 -48 -57 21 -38 45 51 -63 0
-13 14 15 32 -39 17 -34 41 -18 -35 -42 -48 57 -38 60 -63 0
-13 14 31 32 -39 17 41 -47 -18 -35 -42 -48 57 -51 60 -63 0
-13 14 31 15 -39 -34 41 -47 -35 42 48 -57 21 -38 45 -51 -60 0
-13 14 31 15 -39 17 -34 41 -47 18 -35 -48 -57 21 38 -51 -63 0
-13 14 31 15 -39 17 -34 41 -47 -35 42 -48 -57 -38 45 51 -63 0
-13 14 31 15 -39 17 -34 41 -47 19 -36 49 -58 20 -37 44 0
-13 14 31 15 -39 17 -34 41 -47 36 43 -49 -58 20 44 -50 0
-13 14 31 32 -39 17 41 -47 -19 36 43 -49 -58 37 44 -50 0
-13 14 31 15 -39 17 -34 41 -47 19 -36 43 20 -37 50 -59 0
-13 14 31 15 -39 17 -34 41 -47 19 43 -49 37 44 -50 -59 0
-13 14 15 32 -39 17 -34 41 -19 -36 -43 -49 58 -37 59 -64 0
-13 14 31 32 -39 17 41 -47 -19 -36 -43 -49 58 -50 59 -64 0
-13 14 15 32 -39 17 -34 41 -36 58 -20 -37 -44 -50 59 -64 0
-13 14 31 32 -39 17 41 -47 -49 58 -20 -37 -44 -50 59 -64 0
-13 14 31 15 -39 17 -34 -47 19 -36 -43 -49 -58 20 37 -50 59 0
-13 14 31 15 -39 17 -34 -47 19 -36 43 -49 -58 20 37 -50 -59 0
-13 14 31 15 -39 -34 41 -47 -19 -36 43 -49 -58 -37 44 50 59 0
-13 14 31 15 -39 17 -34 -47 19 36 -49 -58 20 -37 44 -50 -59 0
-13 14 31 15 -39 17 -34 -47 19 36 -49 58 20 -37 -44 -50 -59 0
-13 14 31 15 -39 -34 41 -47 -36 43 49 58 -20 -37 44 -50 -59 0
-13 14 31 15 -39 17 -34 41 -47 19 -36 -49 -58 20 37 -50 -64 0
-13 14 31 15 -39 17 -34 41 -47 -36 43 -49 -58 -37 44 50 -64 0
-13 14 31 15 32 17 -34 -47 19 -43 -49 -58 20 -37 44 -59 -64 0
-13 14 31 15 -39 17 -34 41 -47 19 36 -49 20 -37 -50 -59 -64 0
-13 14 31 15 32 17 -34 -47 19 -36 43 -58 20 -44 -50 -59 -64 0
14 31 15 32 -39 -34 41 -47 -19 -36 43 -58 20 44 -50 -59 -64 0
-13 14 31 15 -39 17 -34 41 -47 -36 43 49 -37 44 -50 -59 -64 0
-13 14 31 15 -39 17 -34 41 -47 19 -36 49 -58 21 -38 45 0
-13 14 31 15 -39 17 -34 41 -47 36 43 -49 -58 21 45 -51 0
-13 14 31 15 -39 17 -34 41 -47 19 -36 43 21 -38 51 -60 0
-13 14 31 15 -39 17 -34 41 -47 19 43 -49 38 45 -51 -60 0
-13 14 31 32 -39 17 41 -47 36 43 -49 -21 38 45 -51 -60 0
-13 14 15 32 -39 17 -34 41 -19 -36 -43 -49 58 -38 60 -65 0
-13 14 31 15 -39 17 -34 -47 19 -36 43 -49 -58 21 38 -51 -60 0
-13 14 31 15 -39 17 -34 -47 19 36 -49 -58 21 -38 45 -51 -60 0
-13 14 31 15 -39 17 -34 41 -47 19 -36 -49 -58 21 38 -51 -65 0
-13 14 31 15 -39 17 -34 41 -47 -36 43 -49 -58 -38 45 51 -65 0
14 31 15 32 -39 17 41 -47 -36 43 -49 -58 -21 -38 45 -60 -65 0
-13 14 31 15 -39 17 -34 41 -47 19 36 -49 21 -38 -51 -60 -65 0
14 31 15 32 -39 -34 41 -47 -19 -36 43 -58 21 45 -51 -60 -65 0
-13 14 31 15 -39 17 -34 41 -47 -36 43 49 -38 45 -51 -60 -65 0
-13 14 31 15 -39 17 -34 41 -47 20 -37 50 -59 21 -38 45 0
-13 14 15 32 -39 17 -34 41 20 -37 -44 50 -59 21 -38 51 0
-13 14 31 15 -39 17 -34 41 -47 37 44 -50 -59 21 45 -51 0
-13 14 15 32 -39 17 -34 41 -20 -37 -44 -50 59 -38 60 -66 0
-13 14 31 32 -39 17 41 -47 -20 -37 -44 -50 59 -51 60 -66 0
-13 14 31 15 -39 -34 -20 -37 -44 -50 -59 21 -38 51 60 66 0
-13 14 15 32 -39 17 -34 41 -37 59 -21 -38 -45 -51 60 -66 0
-13 14 31 15 -39 17 -34 -47 20 -37 -44 -50 -59 21 38 -51 60 0
-13 14 31 15 -39 17 -34 41 -47 -37 44 -50 -59 -38 45 51 -66 0
-13 14 31 15 32 17 -34 -47 20 -44 -50 -59 21 -38 45 -60 -66 0
-13 14 31 15 32 17 -34 41 20 -37 -50 -59 21 -45 -51 -60 -66 0
-13 14 31 15 -39 17 -34 41 -47 -37 44 50 -38 45 -51 -60 -66 0
-13 14 15 32 -39 -18 -35 -42 -48 19 -36 43 61 -37 -62 64 0
-13 14 15 32 -39 35 -42 48 -19 -36 -43 -49 61 -44 62 -64 0
-13 31 15 32 -39 -18 -19 -36 -43 -49 -61 -20 37 44 62 64 0
-13 14 31 15 -39 35 42 -48 -19 -36 -43 -49 61 -50 62 -64 0
-13 14 31 15 -39 -18 -35 -42 -48 -36 -61 20 -37 50 62 64 0
-13 14 31 32 -39 -18 -19 -36 -43 -49 -61 -20 37 50 62 64 0
-13 14 31 15 -39 -35 -19 -36 -43 -49 -61 20 -37 50 62 64 0
-13 31 15 32 -39 -42 -19 -36 -43 -49 -61 20 -44 50 62 64 0
-13 14 31 32 -39 -48 -19 -36 -43 -49 -61 20 44 -50 62 64 0
-13 14 15 32 -39 -18 -35 -42 -48 -43 -61 37 -44 50 62 64 0
-13 14 15 32 -39 -42 -19 -36 -43 -49 -61 37 -44 50 62 64 0
-13 14 31 15 -39 -48 -19 -36 -43 -49 -61 37 44 -50 62 64 0
-13 14 15 32 -39 35 -42 48 -43 61 -20 -37 -44 -50 62 -64 0
-13 31 15 32 -39 -18 -19 36 43 61 -20 -37 -44 -50 -62 64 0
-13 14 15 32 -39 -35 19 -36 43 61 -20 -37 -44 -50 -62 64 0
-13 14 31 32 -39 -18 -19 36 49 61 -20 -37 -44 -50 -62 64 0
-13 14 31 15 -39 -35 19 -36 49 61 -20 -37 -44 -50 -62 64 0
-13 31 15 32 -39 -42 19 -43 49 61 -20 -37 -44 -50 -62 64 0
-13 14 15 32 -39 -42 36 -43 49 61 -20 -37 -44 -50 -62 64 0
-13 14 31 15 -39 -48 36 43 -49 61 -20 -37 -44 -50 -62 64 0
-13 14 15 32 -18 35 42 48 -19 -36 -43 61 -37 -44 -50 62 -64 0
14 15 32 -39 -18 -35 -42 19 36 43 -49 61 -37 -44 -50 -62 64 0
-13 31 15 32 -18 -42 -48 -19 -36 -43 -61 20 -37 44 50 62 64 0
-13 31 15 32 -18 -35 -42 -19 -43 -49 -61 20 -37 44 50 62 64 0
-13 14 31 32 -39 -18 -35 -42 -48 -19 36 49 61 -21 -63 65 0
-13 31 15 32 -39 -18 35 42 -19 -36 -43 -49 61 -21 63 -65 0
-13 14 31 32 -39 -18 35 48 -19 -36 -43 -49 61 -21 63 -65 0
-13 14 31 15 -39 -18 -35 -42 -48 19 -36 49 61 -38 -63 65 0
-13 14 15 32 -39 18 -35 42 -19 -36 -43 -49 61 -38 63 -65 0
-13 14 31 15 -39 18 -35 48 -19 -36 -43 -49 61 -38 63 -65 0
-13 31 15 32 -39 -18 -35 -42 -48 19 -43 49 61 -45 -63 65 0
-13 14 15 32 -39 -18 -35 -42 -48 36 -43 49 61 -45 -63 65 0
-13 14 15 32 -39 35 -42 48 -19 -36 -43 -49 61 -45 63 -65 0
-13 14 15 32 -39 -35 -19 -36 -43 -49 -61 21 -38 45 63 65 0
-13 14 31 15 -39 -18 -35 -42 -48 36 43 -49 61 -51 -63 65 0
-13 14 31 15 -39 35 42 -48 -19 -36 -43 -49 61 -51 63 -65 0
-13 14 31 15 -39 -35 -19 -36 -43 -49 -61 21 -38 51 63 65 0
-13 14 31 32 -39 -18 35 -42 -48 19 36 -49 -21 38 -51 -63 65 0
14 31 32 -39 18 35 -42 48 -19 -36 -49 61 -21 -45 -51 63 -65 0
-13 15 32 -39 -18 -42 -48 -20 -37 -44 -62 -38 -45 -51 -66 0
-13 14 31 32 -39 -18 -35 -42 -48 -20 37 50 62 -21 -63 66 0
-13 14 31 15 -39 -18 -35 -42 -48 20 -37 50 62 -38 -63 66 0
-13 14 15 32 -39 18 -35 42 -20 -37 -44 -50 62 -38 63 -66 0
-13 31 15 32 -39 -18 -35 -42 -48 20 -44 50 62 -45 -63 66 0
-13 14 15 32 -39 -18 -35 -42 -48 37 -44 50 62 -45 -63 66 0
-13 14 31 15 -39 -18 -35 -42 -48 37 44 -50 62 -51 -63 66 0
-13 14 31 15 -39 35 42 -48 -20 -37 -44 -50 62 -51 63 -66 0
-13 14 31 15 -39 -35 -20 -37 -44 -50 -62 21 -38 51 63 66 0
-13 31 15 32 -39 -42 -20 -37 -44 -50 -62 21 -45 51 63 66 0
31 15 32 -39 -18 -42 -48 20 37 44 -50 62 -21 -38 -45 -63 66 0
14 31 32 -39 18 35 -42 48 -20 -37 -50 62 -21 -45 -51 63 -66 0
-13 31 32 -39 -19 -43 -49 -20 -37 -44 -64 -21 -38 -51 -65 0
-13 14 32 -39 19 36 -43 49 -20 -37 -44 50 -64 -45 51 -66 0
-13 31 15 32 -39 -19 -36 -43 -49 -20 37 44 64 -21 -65 66 0
-13 14 31 32 -39 -19 -36 -43 -49 -20 37 50 64 -21 -65 66 0
-13 31 15 32 -39 -19 36 43 -20 -37 -44 -50 64 -21 65 -66 0
-13 14 31 32 -39 -19 36 49 -20 -37 -44 -50 64 -21 65 -66 0
-13 14 15 32 -39 -19 -36 -43 -49 20 -37 44 64 -38 -65 66 0
-13 14 31 15 -39 -19 -36 -43 -49 20 -37 50 64 -38 -65 66 0
-13 14 15 32 -39 19 -36 43 -20 -37 -44 -50 64 -38 65 -66 0
-13 14 31 15 -39 19 -36 49 -20 -37 -44 -50 64 -38 65 -66 0
-13 31 15 32 -39 -19 -36 -43 -49 20 -44 50 64 -45 -65 66 0
-13 14 15 32 -39 -19 -36 -43 -49 37 -44 50 64 -45 -65 66 0
-13 31 15 32 -39 19 -43 49 -20 -37 -44 -50 64 -45 65 -66 0
-13 14 15 32 -39 36 -43 49 -20 -37 -44 -50 64 -45 65 -66 0
-13 14 31 15 -39 -19 -36 -43 -49 37 44 -50 64 -51 -65 66 0
-13 14 31 32 -39 19 43 -49 -20 -37 -44 -50 64 -51 65 -66 0
-13 14 31 15 -39 36 43 -49 -20 -37 -44 -50 64 -51 65 -66 0
14 15 32 -39 19 36 43 -49 -37 -44 -50 64 -21 -38 -45 65 -66 0
-13 14 31 32 -19 -36 -49 20 -37 44 50 64 -21 -45 -51 -65 66 0
-13 14 31 15 -19 36 43 49 -20 -37 -50 64 -38 -45 -51 65 -66 0
-13 31 16 -40 17 -34 41 52 -18 -35 42 -53 57 -36 43 58 0
-13 14 33 -40 17 -34 41 52 18 -35 -42 -53 -57 19 -36 -61 0
-13 14 31 16 -40 17 -34 41 18 -35 42 -53 19 -36 54 -61 0
-13 31 16 -40 17 -34 41 52 18 -35 19 -36 -43 -54 -58 -61 0
-13 14 33 -40 17 -34 41 52 18 -35 19 -36 -43 -54 -58 -61 0
-13 14 16 33 -40 17 -34 41 -35 57 -19 -36 -43 -54 58 -61 0
-13 14 31 16 33 17 -34 41 18 -42 -53 -57 19 -36 -54 -58 -61 0
-13 14 31 16 -40 17 -34 52 18 -35 42 -53 -57 20 -37 44 0
-13 14 33 -40 17 -34 41 52 -18 -35 -42 53 57 -37 55 59 0
-13 31 16 -40 17 -34 41 52 -35 42 57 -20 -37 44 -55 59 0
-13 14 33 -40 17 -34 41 52 -35 53 57 -20 -37 -44 55 59 0
-13 31 16 -40 17 -34 41 52 18 -35 -42 -53 -57 20 -37 -62 0
-13 14 16 33 -40 17 -34 52 18 -35 -42 53 20 -37 44 -62 0
-13 31 16 -40 17 -34 41 52 18 -35 20 -37 -44 -55 -59 -62 0
-13 14 16 33 -40 17 -34 41 -35 57 -20 -37 -44 -55 59 -62 0
-13 14 31 16 33 17 -34 41 18 -35 -53 -57 20 -44 -55 -59 -62 0
-13 14 31 16 -40 17 -34 52 18 -35 42 21 -38 45 -56 -60 0
-13 31 16 -40 17 -34 41 52 18 -35 -42 -53 -57 21 -38 -63 0
-13 14 16 33 -40 17 -34 41 -18 -35 -42 -53 57 -38 60 -63 0
-13 14 31 -40 17 -34 41 52 -35 53 57 -38 45 -56 60 -63 0
-13 14 16 33 -40 17 -34 41 -35 57 -21 -38 -45 -56 60 -63 0
-13 31 16 33 17 -34 41 52 -18 -35 -42 57 -21 -45 -56 60 -63 0
-13 14 31 16 33 17 -34 41 18 -35 -53 -57 21 -45 -56 -60 -63 0
-13 14 33 -40 17 -34 41 52 -36 54 58 -20 -37 -44 55 59 0
-13 14 31 16 -40 17 -34 41 19 -36 54 20 -37 44 -55 -64 0
-13 14 16 33 -40 17 -34 41 -19 -36 -43 -54 58 -37 59 -64 0
-13 14 16 33 -40 17 -34 41 -36 58 -20 -37 -44 -55 59 -64 0
-13 14 31 16 33 17 -34 52 19 -43 -54 -58 20 -37 -44 -59 -64 0
-13 14 31 33 17 -34 41 52 -19 -43 -54 58 -20 -37 -55 59 -64 0
-13 31 16 33 17 -34 41 52 -19 -36 -43 58 -20 -44 -55 59 -64 0
-13 14 31 16 33 17 -34 41 19 -36 -54 -58 20 -44 -55 -59 -64 0
-13 14 31 16 -40 17 -34 52 19 -36 43 21 -38 45 -56 -60 0
-13 14 33 -40 17 -34 41 52 -36 54 58 -21 -38 -45 56 60 0
-13 14 33 -40 17 -34 41 52 19 -36 -43 -54 -58 21 -38 -65 0
14 16 33 17 -34 52 19 -36 -43 -54 -58 -21 38 -45 -56 -65 0
-13 14 16 33 -40 17 -34 41 -19 -36 -43 -54 58 -38 60 -65 0
-13 14 31 17 41 52 -19 -36 -43 -54 58 38 -45 -56 -60 -65 0
-13 14 16 33 -40 17 -34 41 -36 58 -21 -38 -45 -56 60 -65 0
-13 14 31 33 17 -34 41 52 -19 -43 -54 58 -21 -38 -56 60 -65 0
-13 31 16 33 17 -34 41 37 44 55 21 45 56 60 66 0
-13 14 33 -40 17 -34 41 52 20 -37 -44 -55 -59 21 -38 -66 0
-13 14 16 33 -40 17 -34 41 -20 -37 -44 -55 59 -38 60 -66 0
14 16 33 17 -34 52 -20 37 -44 -55 21 -38 -45 -56 -60 -66 0
-13 14 16 33 -40 17 -34 41 -37 59 -21 -38 -45 -56 60 -66 0
-13 14 31 16 33 17 -34 41 20 -44 -55 -59 21 -38 -56 -60 -66 0
-13 14 31 33 17 -34 41 52 -20 -44 -55 59 -21 -38 -56 60 -66 0
-13 31 16 33 17 -34 41 52 -20 -37 -44 59 -21 -45 -56 60 -66 0
-13 14 31 16 -40 -18 -35 -42 -53 19 -36 54 61 -37 -62 64 0
-13 14 16 33 -40 18 -35 42 -19 -36 -43 -54 61 -37 62 -64 0
-13 31 16 33 -40 -18 -19 -36 -43 -54 -61 -20 37 44 62 64 0
-13 14 16 33 -40 -35 -19 -36 -43 -54 -61 20 -37 44 62 64 0
-13 14 31 33 -40 -18 -19 -36 -43 -54 -61 -20 37 55 62 64 0
-13 14 31 16 -40 -35 -19 -36 -43 -54 -61 20 -37 55 62 64 0
-13 31 16 33 -40 -42 -19 -36 -43 -54 -61 20 -44 55 62 64 0
-13 14 31 33 -40 -53 -19 -36 -43 -54 -61 20 44 -55 62 64 0
-13 14 16 33 -40 -42 -19 -36 -43 -54 -61 37 -44 55 62 64 0
-13 14 16 33 -40 18 -35 42 -36 61 -20 -37 -44 -55 62 -64 0
-13 31 16 33 -40 -18 -19 36 43 61 -20 -37 -44 -55 -62 64 0
-13 14 16 33 -40 -35 19 -36 43 61 -20 -37 -44 -55 -62 64 0
-13 14 -40 35 -42 53 19 36 -43 61 -20 -37 -44 -55 62 -64 0
-13 14 31 33 -40 -18 -19 36 54 61 -20 -37 -44 -55 -62 64 0
-13 14 31 16 -40 -35 19 -36 54 61 -20 -37 -44 -55 -62 64 0
-13 14 31 33 -40 -53 19 43 -54 61 -20 -37 -44 -55 -62 64 0
-13 14 16 33 -40 -42 36 -43 54 61 -20 -37 -44 -55 -62 64 0
-13 14 16 33 -40 -35 -42 53 19 -36 -43 54 -61 -37 44 55 -62 0
-13 14 16 33 -40 18 35 -42 19 -36 -43 61 20 -37 -44 -55 -64 0
-13 31 16 33 18 -35 42 53 -19 -36 -43 61 -20 -44 -55 62 -64 0
-13 14 16 33 -40 -35 42 53 -19 -36 -43 54 -37 -44 55 62 -64 0
14 31 16 -40 18 35 -42 53 -19 -36 -54 61 -37 -44 -55 62 -64 0
-13 14 33 -40 18 35 42 -53 -19 36 -43 -54 61 38 -56 63 0
-13 14 31 33 -40 -18 -35 -42 -53 -19 36 54 61 -21 -63 65 0
-13 31 16 33 -40 -18 35 42 -19 -36 -43 -54 61 -21 63 -65 0
-13 14 31 33 -40 -18 35 53 -19 -36 -43 -54 61 -21 63 -65 0
-13 14 16 33 -40 -18 -35 -42 -53 19 -36 43 61 -38 -63 65 0
-13 14 16 33 -40 18 -35 42 -19 -36 -43 -54 61 -38 63 -65 0
-13 14 31 16 -40 18 -35 53 -19 -36 -43 -54 61 -38 63 -65 0
-13 14 16 33 -40 -18 -35 -42 -53 36 -43 54 61 -45 -63 65 0
-13 14 16 33 -40 35 -42 53 -19 -36 -43 -54 61 -45 63 -65 0
-13 14 16 33 -40 -35 -19 -36 -43 -54 -61 21 -38 45 63 65 0
-13 14 31 33 -40 18 42 -53 -19 -36 -43 -54 61 -56 63 -65 0
-13 14 16 33 -40 -35 19 -36 43 61 -21 -38 -45 -56 -63 65 0
-13 14 31 16 -40 -35 19 -36 54 61 -21 -38 -45 -56 -63 65 0
-13 31 16 33 -40 -42 19 -43 54 61 -21 -38 -45 -56 -63 65 0
-13 14 31 33 -40 -53 19 43 -54 61 -21 -38 -45 -56 -63 65 0
-13 14 16 33 -40 -42 36 -43 54 61 -21 -38 -45 -56 -63 65 0
-13 14 31 33 18 -35 42 53 -19 -43 -54 61 -21 -38 -56 63 -65 0
14 16 33 -40 -18 -35 -42 19 36 43 -54 61 -38 -45 -56 -63 65 0
-13 16 33 -40 -18 -35 -42 -37 -44 -55 -62 -21 -45 -56 -63 0
-13 14 31 33 -40 -18 -35 -42 -53 -20 37 55 62 -21 -63 66 0
-13 31 16 33 -40 -18 35 42 -20 -37 -44 -55 62 -21 63 -66 0
-13 14 16 33 -40 -18 -35 -42 -53 20 -37 44 62 -38 -63 66 0
-13 14 31 16 -40 -18 -35 -42 -53 20 -37 55 62 -38 -63 66 0
-13 31 16 33 -40 -18 -35 -42 -53 20 -44 55 62 -45 -63 66 0
-13 14 16 33 -40 -18 -35 -42 -53 37 -44 55 62 -45 -63 66 0
-13 31 16 33 -40 18 -42 53 -20 -37 -44 -55 62 -45 63 -66 0
-13 14 16 33 -40 35 -42 53 -20 -37 -44 -55 62 -45 63 -66 0
-13 14 31 33 -40 -18 -35 -42 -53 20 44 -55 62 -56 -63 66 0
-13 14 31 33 -40 18 42 -53 -20 -37 -44 -55 62 -56 63 -66 0
-13 14 31 16 -40 -35 -20 -37 -44 -55 -62 21 -38 56 63 66 0
-13 14 31 33 -40 18 42 -53 -55 62 -21 -38 -45 -56 63 -66 0
31 16 33 -40 18 35 42 -53 -20 -44 -55 62 -21 -38 -45 63 -66 0
-13 16 33 -40 -19 -43 -54 -37 -44 -55 -21 -38 -45 -65 -66 0
-13 31 16 33 -40 -19 -36 -43 -54 -20 37 44 64 -21 -65 66 0
-13 14 31 33 -40 -19 -36 -43 -54 -20 37 55 64 -21 -65 66 0
-13 31 16 33 -40 -19 36 43 -20 -37 -44 -55 64 -21 65 -66 0
-13 14 31 33 -40 -19 36 54 -20 -37 -44 -55 64 -21 65 -66 0
-13 14 16 33 -40 -19 -36 -43 -54 20 -37 44 64 -38 -65 66 0
-13 14 16 33 -40 19 -36 43 -20 -37 -44 -55 64 -38 65 -66 0
-13 14 31 16 -40 19 -36 54 -20 -37 -44 -55 64 -38 65 -66 0
-13 14 16 33 -40 -19 -36 -43 -54 37 -44 55 64 -45 -65 66 0
-13 31 16 33 -40 19 -43 54 -20 -37 -44 -55 64 -45 65 -66 0
-13 14 16 33 -40 36 -43 54 -20 -37 -44 -55 64 -45 65 -66 0
-13 14 31 33 -40 -19 -36 -43 -54 20 44 -55 64 -56 -65 66 0
-13 14 31 16 -40 -19 -36 -43 -54 37 44 -55 64 -56 -65 66 0
-13 14 31 33 -40 19 43 -54 -20 -37 -44 -55 64 -56 65 -66 0
-13 14 16 33 -19 36 43 54 -37 -44 -55 64 -21 -38 -45 65 -66 0
14 16 33 -40 -36 -43 -54 20 37 44 -55 64 -21 -38 -45 -65 66 0
-13 14 31 17 -34 41 -18 -35 -42 -36 43 -61 20 -37 -59 62 0
-13 14 31 17 -34 -35 42 19 -36 43 -58 -20 -37 -44 59 -62 0
-13 14 31 17 -34 41 18 -35 -57 -19 -36 -43 61 -37 44 -64 0
-13 14 31 17 -34 41 -18 -35 57 -36 -43 -58 61 -37 44 -64 0
-13 14 31 17 -34 41 -35 42 -19 -36 -43 -61 20 -37 -59 64 0
-13 14 31 17 -34 41 -18 -35 -42 36 43 -58 61 44 -62 64 0
-13 14 31 17 -34 41 18 -35 -57 -36 43 -20 -37 -44 62 -64 0
-13 14 31 17 -34 41 -35 42 19 -36 -58 -20 -37 -44 -62 64 0
-13 14 31 17 -34 41 35 42 -57 43 61 -20 -37 -44 62 -64 0
-13 14 31 17 -34 41 42 -36 -43 -58 -61 -20 37 44 62 64 0
-13 14 31 17 -34 41 42 36 43 -58 61 -20 -37 -44 -62 64 0
-13 14 31 17 -34 41 -18 35 42 43 58 -20 -44 59 -62 -64 0
-13 14 31 17 -34 41 -18 -35 -42 43 -61 37 44 -59 62 64 0
-13 14 31 17 -34 41 -18 35 42 43 61 -37 -44 -59 62 -64 0
-13 14 31 17 -34 41 42 -19 -36 -43 -61 37 44 -59 62 64 0
-13 14 17 -34 18 -35 42 36 -43 61 20 -37 -44 -59 -62 -64 0
14 31 17 -34 41 18 -19 36 -43 -61 20 -37 -44 -59 -62 -64 0
14 31 17 -34 41 -18 -35 -42 57 -19 -58 -61 20 37 44 -62 64 0
-13 14 17 -34 41 -18 -35 -42 57 43 -58 -61 20 37 44 -62 64 0
-13 14 31 17 -34 41 -35 42 -19 -36 43 -61 -20 -44 59 62 -64 0
-13 14 31 17 -34 41 -35 42 -36 43 -58 -61 20 -44 -59 62 -64 0
-13 14 17 -34 41 35 42 57 -19 43 61 20 -37 -44 -59 -62 -64 0
14 31 17 41 35 42 57 19 36 43 -21 38 60 63 -65 0
-13 14 31 17 -34 -35 42 -19 -36 -43 58 -61 21 -38 45 -60 0
-13 14 31 17 -34 41 -18 -35 -42 19 -36 -58 61 -38 45 -63 0
-13 14 31 17 -34 41 -35 -42 -57 -19 -36 58 61 -38 45 -63 0
-13 14 31 17 41 -18 -35 -42 57 -19 36 43 -58 45 60 -63 0
-13 14 31 17 -34 18 -35 42 -57 -19 -36 -43 58 -38 45 -65 0
-13 14 31 17 -34 41 18 -35 -57 -19 -36 -43 61 -38 45 -65 0
-13 14 31 17 -34 41 -18 -35 57 -36 -43 -58 61 -38 45 -65 0
-13 14 31 17 -34 41 -35 42 -36 -43 -58 -61 -21 -38 60 65 0
14 31 17 -34 41 18 -35 -42 -57 -19 36 -43 -61 21 -63 -65 0
14 31 17 -34 41 -18 35 -42 19 -36 -43 -58 -61 21 -63 -65 0
-13 14 31 17 -34 41 -35 -42 -57 -19 36 43 61 45 -63 65 0
-13 14 31 17 -34 41 35 42 -57 -19 -36 -43 61 45 63 -65 0
-13 14 31 17 -34 41 -18 -35 -42 36 43 -58 61 45 -63 65 0
-13 14 31 17 -34 41 -18 35 42 -36 -43 -58 61 45 63 -65 0
-13 31 17 -34 41 -18 -35 -42 57 -19 -43 58 -61 21 38 60 -65 0
-13 14 31 17 -34 41 -18 -42 57 -36 43 61 -21 -38 45 -63 -65 0
-13 14 31 17 41 35 42 57 19 -36 -43 -58 -61 -21 -60 63 -65 0
31 17 -34 41 -18 -35 -42 19 36 43 -58 61 -21 -38 -60 -63 65 0
-13 14 31 17 -34 41 -18 -35 42 -36 43 -61 -21 -45 60 -63 65 0
-13 31 17 -34 41 18 -35 -42 -57 -20 -37 44 59 -38 45 -63 0
-13 14 31 17 -34 41 -18 -35 -42 20 -37 -59 62 -38 45 -63 0
-13 14 31 17 -34 41 -35 -42 -57 -20 -37 59 62 -38 45 -63 0
-13 14 31 17 -34 41 18 -35 -57 -20 -37 -44 62 -38 45 -66 0
-13 14 31 17 -34 41 -18 -35 57 -37 -44 -59 62 -38 45 -66 0
-13 14 17 -34 41 -18 -35 -42 57 37 -44 59 62 -38 60 66 0
-13 14 31 17 -34 41 -35 42 -20 -37 -44 -62 21 -38 -60 66 0
14 31 17 -34 41 18 -35 -42 -57 -20 37 -44 -62 21 -63 -66 0
-13 14 31 17 -34 41 -35 -42 -57 -20 37 44 62 45 -63 66 0
-13 14 31 17 -34 41 35 42 -57 -20 -37 -44 62 45 63 -66 0
-13 14 31 17 -34 41 -18 -35 -42 37 44 -59 62 45 -63 66 0
-13 14 31 17 -34 41 -18 35 42 -37 -44 -59 62 45 63 -66 0
14 31 17 41 18 -35 -42 -57 -20 37 44 21 -38 45 -63 -66 0
31 17 -34 41 18 35 42 -57 -20 -37 -44 62 -21 -38 -60 63 -66 0
-13 14 17 -34 41 -18 -35 -42 57 20 37 44 -62 45 -60 -63 66 0
-13 31 17 41 18 35 42 57 -20 44 -59 21 -38 -45 -60 -63 -66 0
-13 14 17 -34 41 42 -57 20 37 44 62 -21 -38 -45 60 -63 -66 0
-13 14 31 17 -34 41 -19 -36 58 -20 -44 59 64 -38 45 60 0
14 31 17 -34 41 -19 36 43 -58 20 -37 -44 -59 21 45 -66 0
-13 14 31 17 -34 41 36 43 -58 20 -44 -59 -64 21 45 -66 0
-13 14 31 17 -34 41 -36 43 -20 -37 -44 -64 21 -38 -60 66 0
-13 14 31 17 41 -19 36 43 -58 -20 -37 -44 59 45 60 -66 0
-13 14 31 -34 41 19 -36 43 -20 -37 -44 -59 21 -38 -65 66 0
-13 14 31 17 -34 41 -36 -43 -58 -20 37 44 64 45 -65 66 0
-13 14 31 17 -34 41 36 43 -58 -20 -37 -44 64 45 65 -66 0
-13 14 31 17 -34 41 -19 -36 -43 37 44 -59 64 45 -65 66 0
-13 14 31 17 -34 41 -19 36 43 -37 -44 -59 64 45 65 -66 0
-13 14 31 17 -34 41 19 -36 -58 -37 44 -21 -38 -45 65 -66 0
-13 14 31 17 -34 41 -36 -43 -58 44 -64 -21 38 45 65 66 0
-13 14 31 17 -34 41 36 43 -58 44 64 -21 -38 -45 65 -66 0
-13 14 31 17 -34 41 -36 43 -20 -37 59 -38 -45 -60 -65 66 0
31 -34 41 19 36 43 -20 -44 59 -64 -21 -38 -45 -60 65 -66 0
-13 14 31 17 41 -36 43 -20 -37 -44 59 64 -21 -38 45 -60 -65 0
31 17 -34 41 19 36 43 -58 -20 -37 -59 64 -21 -38 -45 65 -66 0
-13 14 17 -34 41 43 -58 -20 -37 -44 59 -64 21 38 45 65 -66 0
14 31 17 -34 41 19 36 43 -20 -37 -44 59 -64 -21 -60 65 -66 0
31 17 -34 41 -19 -36 -43 20 37 44 -59 64 -21 -38 -60 -65 66 0
-13 14 17 -34 41 19 36 43 -20 -37 -44 59 -64 45 -60 65 -66 0
-13 14 31 -34 41 19 -36 43 -20 -37 44 -59 -21 -45 60 65 -66 0
-13 14 17 -34 41 19 36 43 44 -59 64 -21 -38 -45 60 -65 -66 0
-13 14 31 42 -19 -43 -61 20 -37 44 62 64 -21 38 45 -65 0
-13 14 31 42 19 -36 43 61 -20 -44 -62 64 -21 38 45 -66 0
-13 14 31 -35 -42 19 -36 43 -61 -20 37 44 62 45 -63 66 0
14 -18 -35 -42 19 36 43 61 -37 -44 -62 -64 -21 45 -63 66 0
31 -18 -35 -42 19 36 43 61 -20 -44 -62 -64 -38 45 -63 66 0
14 18 35 42 -19 -36 -43 61 -37 -44 -62 -64 -21 45 -65 66 0
-13 14 31 35 -42 19 43 -61 -20 -37 -44 -62 64 -63 65 -66 0
31 18 35 42 -19 -36 -43 61 37 -44 -64 -21 -38 -63 -65 66 0
31 18 35 42 36 -43 -20 -37 -44 62 -64 -21 -38 -63 65 -66 0
31 -35 42 19 36 43 -20 -37 -44 -62 64 -21 -45 63 -65 -66 0
-13 14 31 -18 -35 -42 43 -61 20 -37 44 38 45 63 65 -66 0
14 -18 42 19 36 43 -20 -37 -44 -62 64 -38 -45 63 -65 -66 0
14 31 -35 19 36 43 61 -20 -37 -44 -62 -64 -21 38 45 -63 66 0
-13 14 31 -18 -35 -36 -43 -61 -20 37 44 62 64 21 -63 -65 66 0
-13 14 31 18 -35 43 -61 -20 -37 -44 62 -64 21 45 63 65 -66 0
-13 14 31 18 -42 -19 -36 43 -61 -37 44 62 -38 45 -63 -65 66 0
14 31 18 35 42 19 -36 61 -20 44 -64 -21 -38 -45 -63 65 -66 0
15 32 16 33 46 17 52 35 53 57 19 -36 -49 58 61 0
15 32 16 33 46 17 52 35 53 57 19 36 49 -58 -61 0
15 32 16 33 46 17 52 -18 35 -48 57 36 54 58 61 0
15 16 33 46 17 -34 52 18 -35 -48 -53 -57 -19 36 54 -58 0
15 32 16 33 46 -34 52 -18 -35 48 -53 -57 -36 -49 54 58 0
15 16 33 46 17 -34 52 -18 35 53 -57 19 -36 -49 -54 -58 0
15 32 16 33 46 -34 52 -35 -48 53 57 -19 -36 49 -54 -58 0
-13 32 16 33 46 17 -34 -47 52 18 -48 -53 -57 19 54 -61 0
-13 32 16 33 46 17 -34 -47 52 18 53 19 -49 -54 -58 -61 0
-13 15 16 33 46 -34 52 -18 -35 -48 53 -57 -19 -36 49 -54 58 0
-13 15 16 33 46 -34 52 -18 -35 48 -53 57 -19 -36 -49 54 -58 0
15 16 33 46 -34 -47 52 18 35 -48 -53 -57 -19 -36 -49 54 -58 0
15 16 33 46 -34 -47 52 -18 -35 -48 53 -57 19 36 -49 -54 -58 0
15 32 16 33 46 17 -34 -47 -18 35 -48 -53 -57 19 -36 54 -61 0
-13 15 32 16 33 17 -34 52 18 -48 -53 -57 19 -36 -49 -58 -61 0
15 32 16 33 46 17 52 35 53 57 -20 37 -50 59 62 0
15 32 16 33 46 17 52 -18 35 -48 57 37 55 59 62 0
15 32 16 33 46 17 52 18 35 48 -57 37 55 59 -62 0
15 16 33 46 17 -34 52 18 -35 -48 -53 -57 -20 37 55 -59 0
15 32 16 33 46 -34 52 -18 -35 48 -53 -57 -37 -50 55 59 0
15 16 33 46 17 -34 52 -18 35 53 -57 20 -37 -50 -55 -59 0
15 32 16 33 46 -34 52 -35 -48 53 57 -20 -37 50 -55 -59 0
-13 32 16 33 46 17 -34 -47 52 18 -48 -53 -57 20 55 -62 0
-13 32 16 33 46 17 -34 -47 52 -18 -35 48 -53 50 55 -62 0
-13 32 16 33 46 17 -34 -47 52 48 53 -20 -37 50 -55 -62 0
-13 32 16 33 46 17 -34 -47 52 18 53 20 -50 -55 -59 -62 0
-13 15 16 33 46 -34 52 -18 -35 -48 53 -57 -20 -37 50 -55 59 0
-13 15 16 33 46 -34 52 -18 -35 48 -53 57 -20 -37 -50 55 -59 0
15 16 33 46 -34 -47 52 18 35 -48 -53 -57 -20 -37 -50 55 -59 0
15 16 33 46 -34 -47 52 -18 -35 -48 53 -57 20 37 -50 -55 -59 0
15 32 16 33 46 17 -34 -47 -18 35 -48 -53 -57 20 -37 55 -62 0
-13 15 32 46 17 -34 -47 52 -18 -35 48 -53 -37 50 55 -59 -62 0
15 32 16 33 46 17 52 35 53 57 21 -38 51 60 -63 0
15 32 16 33 46 17 52 35 53 57 21 38 51 -60 -63 0
15 32 16 33 46 17 52 18 35 48 -57 38 56 60 -63 0
15 32 16 33 46 -34 52 -35 -48 53 57 -21 -38 51 -56 -60 0
-13 32 16 33 46 17 -34 -47 52 18 -48 -53 -57 21 56 -63 0
-13 32 16 33 46 17 -34 -47 52 -18 -35 48 -53 51 56 -63 0
-13 32 16 33 46 17 -34 -47 52 48 53 -21 -38 51 -56 -63 0
-13 15 16 33 46 -34 52 -18 -35 48 -53 57 -21 -38 -51 56 -60 0
15 32 16 33 46 17 -34 -47 -18 35 -48 -53 -57 21 -38 56 -63 0
-13 15 32 46 17 -34 -47 52 -35 48 53 -57 -21 -38 51 -56 -63 0
-13 15 32 16 33 17 -34 -47 18 -48 -53 -57 21 -38 56 -60 -63 0
-13 15 32 16 46 17 -34 52 -18 -35 -48 -53 57 51 56 -60 -63 0
15 32 16 33 46 17 -34 52 19 49 58 37 50 -59 64 0
15 32 16 33 46 17 52 36 54 58 20 -37 50 59 -64 0
15 32 16 33 46 17 52 19 36 49 -58 37 55 59 -64 0
15 16 33 46 17 -34 52 19 -36 -49 -54 -58 -20 37 55 -59 0
15 32 16 33 46 -34 52 -19 -36 49 -54 -58 -37 -50 55 59 0
15 16 33 46 17 -34 52 -19 36 54 -58 20 -37 -50 -55 -59 0
15 32 16 33 46 -34 52 -36 -49 54 58 -20 -37 50 -55 -59 0
-13 32 16 33 46 17 -34 -47 52 -19 -36 49 -54 50 55 -64 0
-13 32 16 33 46 17 -34 -47 52 49 54 -20 -37 50 -55 -64 0
-13 32 16 33 46 17 -34 -47 52 19 54 20 -50 -55 -59 -64 0
-13 15 16 33 46 -34 52 -19 -36 -49 54 -58 -20 -37 50 -55 59 0
-13 15 16 33 46 -34 52 -19 -36 49 -54 58 -20 -37 -50 55 -59 0
15 16 33 46 -34 -47 52 19 36 -49 -54 -58 -20 -37 -50 55 -59 0
15 16 33 46 -34 -47 52 -19 -36 -49 54 -58 20 37 -50 -55 -59 0
-13 15 32 16 33 17 -34 52 19 -36 -49 -58 20 -50 -55 -59 -64 0
15 32 16 33 46 17 -34 -47 19 -36 54 -20 37 -50 -55 -59 -64 0
15 32 16 33 46 -34 52 -36 -49 54 58 -21 -38 51 -56 -60 0
-13 32 16 33 46 17 -34 -47 52 19 -49 -54 -58 21 56 -65 0
-13 32 16 33 46 17 -34 -47 52 49 54 -21 -38 51 -56 -65 0
-13 32 16 33 46 17 -34 -47 52 19 54 21 -51 -56 -60 -65 0
-13 15 16 33 46 -34 52 -19 -36 -49 54 -58 -21 -38 51 -56 60 0
-13 15 32 16 33 17 -34 52 19 -49 -54 -58 21 -38 -51 -60 -65 0
-13 15 32 16 46 17 -34 52 49 54 -58 -21 -38 -51 -56 60 -65 0
15 32 16 33 46 17 52 20 -37 50 59 38 56 60 -66 0
-13 32 16 33 46 17 -34 -47 52 20 -50 -55 -59 21 56 -66 0
-13 32 16 33 46 17 -34 -47 52 50 55 -21 -38 51 -56 -66 0
-13 15 32 46 17 -34 -47 52 -37 50 55 -59 -21 -38 51 -56 -66 0
-13 15 32 46 17 -34 -47 52 -20 -37 50 -55 -38 51 56 -60 -66 0
15 32 16 33 46 17 -34 52 -20 50 -59 -21 -38 -51 -56 60 -66 0
-13 15 32 16 46 17 -34 52 50 55 -59 -21 -38 -51 -56 60 -66 0
15 32 16 33 46 -18 35 -19 36 54 61 20 37 50 62 0
15 32 16 33 46 18 -35 19 -36 49 61 20 37 55 62 0
15 32 16 33 46 -18 35 53 -19 36 61 20 37 50 64 0
15 32 16 33 46 18 35 53 19 -36 61 20 -37 50 64 0
15 32 16 33 46 18 35 48 19 -36 61 20 -37 55 64 0
15 32 16 33 46 18 35 53 36 49 -61 20 50 -62 64 0
15 32 16 33 46 -18 35 53 19 49 -61 37 50 62 64 0
15 32 16 33 46 18 35 53 19 49 -61 37 50 -62 64 0
15 32 16 33 46 35 53 19 54 61 20 -37 50 -62 64 0
15 32 16 33 46 18 53 36 54 61 -20 37 50 -62 64 0
15 32 16 33 46 18 -35 48 36 54 -61 20 55 62 64 0
15 32 16 33 46 35 48 19 49 61 -20 37 55 62 -64 0
15 32 16 33 46 18 48 36 49 61 -20 37 55 -62 64 0
15 32 16 33 46 18 48 36 49 61 20 -37 55 62 -64 0
-13 15 16 33 46 48 53 -19 36 -49 54 -20 -37 50 -55 -62 0
15 32 16 33 46 -18 -35 -48 53 -19 49 -61 -20 50 -55 64 0
15 32 16 33 46 -18 -35 -48 53 -36 49 -61 -37 50 -55 64 0
15 32 16 33 46 -35 48 -53 -36 49 61 -20 -37 -50 55 -64 0
15 32 16 33 46 -18 -48 53 -19 54 61 -20 -37 50 -55 -64 0
32 16 33 35 -48 53 -19 -36 -49 54 -61 -20 -37 50 -55 -64 0
15 32 16 33 46 -18 -35 -48 53 -36 49 -54 -37 50 -62 64 0
15 32 16 33 46 -35 48 -53 -19 -36 -49 54 -37 50 62 -64 0
32 16 33 46 -18 -35 -48 53 -19 -49 -54 -61 -37 50 -62 64 0
15 32 16 33 46 -18 -35 48 -53 -19 -49 54 -20 55 -62 64 0
15 32 16 46 -18 -35 48 -53 -19 54 -61 -37 -50 -55 -62 64 0
32 16 33 46 18 -35 53 -19 -49 -54 61 -37 -50 55 62 -64 0
15 16 33 46 -18 -35 -53 19 -49 61 -20 -37 -50 55 -62 -64 0
-13 32 16 33 46 -18 53 -19 -36 49 -54 61 -20 -37 -50 55 -62 0
-13 15 16 33 46 -35 53 -19 -36 -49 54 -61 -20 -37 50 -55 62 0
-13 15 16 33 46 -35 53 -19 -36 49 -54 61 -20 -37 -50 55 -62 0
-13 15 32 33 46 -18 -35 -48 53 -19 49 61 -20 -37 50 -55 -64 0
-13 15 16 33 46 -18 -35 -48 53 -36 54 -61 -20 -37 50 -55 64 0
-13 15 32 16 46 -18 -35 48 -53 -19 -36 -49 54 -37 50 -62 64 0
-13 15 32 16 46 -18 -35 -48 53 -19 -36 49 -54 -37 50 62 -64 0
15 32 16 33 46 -18 -35 -48 -53 19 -36 49 61 -20 55 -62 -64 0
-13 15 16 33 46 -18 -35 -48 53 -19 -36 49 -54 -37 55 -62 64 0
-13 15 16 33 46 -18 -35 48 -53 -19 -36 -49 54 -37 55 62 -64 0
15 32 16 33 46 -18 35 48 -19 -36 -49 -54 61 -37 55 -62 -64 0
15 32 16 33 46 -35 48 -19 -36 -49 -54 -61 -20 37 55 -62 64 0
15 32 16 33 46 -18 35 53 -36 49 -61 -20 -37 -50 -55 62 -64 0
15 32 16 33 46 18 -35 53 36 49 -61 21 51 63 65 0
15 32 16 33 46 -18 -35 -48 53 -36 49 -61 -38 51 -56 65 0
-13 15 32 33 46 18 48 19 -49 -54 -61 21 -38 51 -56 -65 0
-13 32 16 33 46 18 -48 -53 -19 -36 49 -54 -61 51 -63 -65 0
-13 15 32 16 46 35 -48 -53 -19 -36 -49 54 -61 56 -63 -65 0
15 16 33 46 35 -48 53 -19 -36 49 -54 -38 51 56 -63 -65 0
-13 15 32 33 46 -18 48 -19 -36 -49 54 61 -21 -38 51 -56 -63 0
-13 32 16 33 46 -18 53 -19 -36 -49 54 -61 -21 -38 51 -56 63 0
15 32 16 46 -35 48 -53 19 36 -49 -54 -61 -21 -38 51 -56 -63 0
15 32 16 33 46 18 35 48 -20 37 55 -21 38 63 66 0
15 32 16 33 46 18 -35 53 37 50 -62 21 51 63 66 0
15 32 16 33 46 35 53 20 55 62 -21 38 51 63 -66 0
15 32 16 33 46 35 53 20 -37 50 -62 21 56 63 66 0
15 32 16 33 46 -18 35 48 20 55 -62 38 56 63 66 0
-13 15 32 33 46 -18 -35 -48 53 20 -37 50 -55 51 56 -63 0
-13 15 16 33 46 -18 -35 48 -53 37 -50 -55 -62 51 -63 -66 0
15 32 16 33 46 -35 48 -53 -20 -37 -50 55 -38 51 63 -66 0
-13 15 32 46 -18 35 48 -20 -37 -50 -55 21 51 56 -63 66 0
-13 32 16 33 46 18 -48 -53 50 -62 -21 -38 51 -56 -63 -66 0
-13 15 16 33 46 -18 -35 -48 -53 20 -37 50 62 51 56 -63 -66 0
-13 32 16 33 46 -18 -35 -48 -53 -20 37 50 62 51 56 -63 -66 0
-13 15 32 16 46 -18 -35 -48 -53 20 -37 55 62 51 56 -63 -66 0
-13 15 32 16 46 18 -35 53 -20 -37 -50 -55 62 51 56 -63 -66 0
15 32 16 33 46 19 49 20 37 55 -64 38 51 65 -66 0
15 32 16 33 46 19 54 37 55 64 -21 38 51 -65 66 0
15 32 16 33 46 19 54 37 55 64 21 38 51 -65 -66 0
15 32 16 33 46 36 54 20 37 50 -64 21 56 65 -66 0
15 32 16 33 46 19 36 49 37 55 -64 21 56 -65 66 0
15 32 16 33 46 -19 -49 54 -20 -37 50 -55 -21 56 65 -66 0
32 16 33 46 36 -49 -20 -37 -55 64 -21 -38 -51 56 -65 -66 0
-13 32 16 33 46 49 20 -50 -55 -64 -21 -38 51 -56 -65 -66 0
15 32 16 33 46 19 -36 49 -20 -37 -50 -55 64 -21 56 -65 -66 0
-13 15 -34 -47 -35 -48 -57 -19 -36 -49 -61 -20 -37 50 -59 0
-13 15 -34 -47 -18 -48 -57 -19 -36 -58 -61 20 -37 -50 -59 0
-13 15 -34 -47 -18 -35 -48 -36 -49 -58 -61 -20 -37 50 -59 0
-13 15 -34 -47 -18 -35 -57 19 -36 -49 -58 -20 -50 -59 -62 0
-13 15 -34 -47 -18 -35 -48 -19 -36 49 -58 -37 -50 -59 -62 0
-13 -34 -47 -18 -48 -19 -36 -49 -58 -61 -20 -37 50 59 -62 0
-13 15 -34 -47 18 -35 -48 -57 -19 -49 -58 -20 -37 -59 -64 0
-13 15 -34 -47 18 -35 -48 -57 -19 -36 -58 -20 -50 -59 -64 0
-13 15 -34 -47 -18 -35 -48 -57 -19 -36 49 -37 -50 -59 -64 0
-13 15 17 -34 -47 -35 -48 -57 -19 -49 -61 -20 -37 -62 -64 0
-13 -34 -47 -18 -35 48 -57 -19 -36 -49 -58 -20 -50 62 -64 0
-13 -34 -47 18 35 -48 -57 -19 -36 -49 -58 -20 -50 -62 -64 0
-13 32 17 -34 -47 18 -35 48 -57 -19 -36 49 61 -37 50 -59 0
15 32 17 -34 -47 18 -57 19 -36 49 -58 -20 37 -50 -59 -62 0
-13 32 17 -34 -47 18 -35 -57 19 -49 -58 20 -37 50 -59 64 0
-13 15 17 -47 18 35 -48 57 19 -36 -49 61 37 -50 62 -64 0
-13 15 17 -34 -47 18 35 -48 19 -36 -49 -58 61 20 37 -50 -59 0
-13 15 32 -34 -47 -18 48 57 -19 -36 49 58 -20 -37 50 -59 62 0
-13 15 32 -34 -47 -18 -35 48 57 -19 -36 49 -58 -20 50 59 64 0
-13 15 17 -34 -47 18 35 -48 57 -36 -49 -58 61 -37 50 62 -64 0
-13 15 17 -34 -18 35 48 57 -36 -49 -58 61 -20 -37 50 62 -64 0
15 32 17 -34 -47 18 -35 -19 36 -49 -58 -61 20 37 50 62 -64 0
15 32 -34 -47 18 35 -48 57 -19 -36 -58 61 20 -50 -59 62 -64 0
15 32 -34 -47 18 -48 -57 -19 -36 -58 -61 20 37 -50 59 62 64 0
-13 -34 -47 -18 35 -48 57 -19 -36 -49 -58 -21 -51 -63 -65 0
-13 15 32 17 -34 -18 -35 -48 57 -36 49 -61 21 -38 51 -60 0
-13 15 32 17 -34 -35 48 -19 -36 -49 58 -61 21 -38 51 -60 0
15 32 17 -34 -47 18 -57 -19 36 -49 -58 -61 21 -38 51 -60 0
-13 32 17 -34 -47 18 -35 -57 19 -36 49 -58 21 -51 -60 65 0
-13 32 17 -34 -47 -35 48 -57 -19 -36 49 21 -38 51 -60 65 0
15 32 17 -34 -47 18 -35 48 -57 19 -58 -21 38 -51 -60 -65 0
-13 32 17 -34 -47 18 -35 -57 19 -49 -58 21 -38 51 -60 65 0
-13 15 17 -34 -47 18 35 -48 57 -36 -49 -58 61 -38 51 63 -65 0
-13 15 32 17 -47 18 -35 48 -57 19 36 -58 21 -38 -60 -63 -65 0
-13 15 32 17 -34 -47 18 35 19 -36 -58 61 21 -51 -60 -63 -65 0
-13 15 32 17 -34 -47 -18 -35 48 49 58 -61 -38 51 -60 -63 65 0
-13 -34 -47 -18 -35 -48 -57 -20 -37 50 59 -21 -51 -63 -66 0
-13 32 -34 -47 -18 -35 -57 -20 37 -50 -21 -51 -60 -63 -66 0
-13 32 17 -34 -47 18 -35 48 -57 -20 -37 50 62 -38 51 -60 0
-13 15 32 17 -34 18 -35 48 -57 -20 -37 -50 59 -38 51 -66 0
-13 15 32 -34 -47 -18 -35 -57 -20 37 50 59 62 21 -60 -63 66 0
-13 -34 -47 19 36 -49 -58 -20 -50 -64 -21 -38 -51 -60 -66 0
-13 32 17 -34 -47 19 -49 -58 20 -37 50 -59 64 21 -38 -60 0
-13 32 17 -34 -47 -19 -36 49 20 -37 50 -59 64 -38 51 -60 0
15 32 17 -34 -47 19 -36 49 -58 20 -59 -21 38 -51 -60 -66 0
15 32 17 -34 -19 -36 -49 58 20 50 -59 -64 21 -38 51 60 -65 0
-13 15 32 17 -34 -47 19 -49 -58 20 -37 -59 -64 21 38 -65 66 0
-13 15 17 -34 -47 -36 -49 -58 20 37 -50 59 64 -38 51 -65 66 0
-13 15 32 17 -34 -47 49 58 -37 50 -59 64 -21 -38 51 -65 -66 0
-13 15 32 17 -34 -47 19 36 20 -50 -59 -64 21 -38 -60 65 -66 0
-13 15 32 17 -34 -47 19 36 20 -37 -59 64 21 -51 -60 -65 -66 0
-13 15 32 17 -34 -47 49 58 -20 -37 50 -64 -38 51 -60 65 -66 0
-13 15 18 -35 48 -19 -36 -49 61 20 37 -50 -64 -38 63 -65 0
-13 15 -35 -19 -36 -49 -61 20 37 -50 -64 21 -38 51 63 65 0
-13 15 -35 19 36 -49 -20 -37 -50 -62 -64 21 -38 51 63 66 0
-13 15 32 18 -48 36 49 -61 -20 -37 -50 -62 64 -63 65 -66 0
-13 15 32 19 49 61 -20 -37 -50 -62 64 38 -51 -63 -65 -66 0
-13 15 32 35 48 -19 -36 -49 61 -20 -37 50 -62 -21 51 65 -66 0
-13 15 32 -35 -48 -19 36 49 61 -20 -37 -62 64 21 -63 65 -66 0
-13 15 32 -35 -48 -19 -36 -61 -20 37 50 62 64 21 -63 -65 66 0
-13 15 32 -18 -35 -36 -49 -61 -20 37 50 62 64 21 -63 -65 66 0
15 32 -35 -48 -19 -36 -61 20 37 -50 62 64 21 -51 -63 -65 66 0
-13 33 17 -34 52 18 -35 -53 -57 -36 54 -61 -20 -37 55 59 0
-13 33 17 -34 52 -35 53 19 -36 -54 -58 -61 -20 -37 55 59 0
-13 16 33 17 -34 52 18 -53 -57 19 -36 54 20 -37 -59 62 0
-13 16 33 17 -34 52 -18 -35 -53 -36 54 -61 20 -37 -59 62 0
-13 16 33 17 -34 52 -35 -53 -57 -36 54 -61 -20 -37 59 62 0
-13 16 33 17 -34 -35 53 19 -36 54 -58 -20 -37 -55 59 -62 0
-13 33 17 -34 52 -35 53 -19 -36 54 58 20 -37 -55 -59 -62 0
-13 16 33 17 -34 52 18 -35 -57 -19 -36 -54 61 -37 55 -64 0
-13 16 33 17 -34 52 -18 -35 57 -36 -54 -58 61 -37 55 -64 0
-13 16 33 17 -34 52 53 57 -19 -54 58 -61 -20 37 55 -64 0
-13 16 33 17 -34 52 -35 53 -19 -36 -54 -61 20 -37 -59 64 0
-13 16 33 17 -34 52 -35 53 -36 -54 -58 -61 -20 -37 59 64 0
-13 16 33 17 -34 18 -35 53 -57 -36 54 -20 -37 -55 59 -64 0
-13 16 33 17 52 -18 35 53 -57 54 58 -20 -37 -55 59 -64 0
-13 16 33 -34 52 -35 53 57 -36 58 -61 -20 -37 -55 -59 64 0
-13 16 33 17 -34 52 -35 -53 -57 -19 36 54 61 55 -62 64 0
-13 16 33 17 -34 52 -35 -53 -57 54 -61 -20 37 55 62 64 0
-13 16 33 17 -34 52 53 36 54 -58 61 -20 -37 -55 -62 64 0
-13 16 33 17 -34 52 -18 -35 57 -36 54 -37 -55 -59 62 -64 0
-13 16 33 17 -34 52 -35 53 -19 -36 58 -37 -55 -59 -62 64 0
-13 16 33 17 -34 52 53 -19 -36 -54 -61 37 55 -59 62 64 0
-13 16 33 -18 -35 -53 -57 19 -54 -58 -61 37 55 59 62 -64 0
16 33 17 -34 52 18 -19 36 -54 -61 20 -37 -55 -59 -62 -64 0
-13 16 33 17 52 -35 53 -19 -36 54 -58 -61 -20 -37 -55 59 62 0
-13 16 33 17 -34 18 -35 -53 -57 19 -54 -58 -61 20 37 59 -64 0
-13 16 17 -34 52 18 -35 -53 -57 36 54 58 -61 -20 55 -62 64 0
16 33 17 -34 52 -18 -35 -53 57 -19 -58 -61 20 37 55 -62 64 0
16 33 17 -34 52 18 35 53 -19 -36 -54 58 -61 -20 -59 62 -64 0
-13 16 33 17 -34 18 -35 -53 -57 19 36 58 20 -55 -59 -62 -64 0
-13 16 33 -34 52 -18 -35 53 -19 -36 54 58 -20 -55 59 62 -64 0
16 33 17 -34 52 18 35 53 -19 -58 61 -20 -37 -55 59 -62 -64 0
-13 16 17 -34 52 18 35 53 54 -58 61 -20 -37 -55 59 -62 -64 0
-13 16 33 17 -18 -35 -57 -36 -54 -58 -61 -20 37 55 59 62 64 0
-13 33 17 -34 52 18 -35 -53 -57 -19 -36 54 58 -38 56 -63 0
-13 16 33 17 -34 52 -18 -35 -53 19 -36 -58 61 -38 56 -63 0
-13 16 33 17 -34 52 -35 -53 -57 -19 -36 58 61 -38 56 -63 0
-13 16 33 17 -34 52 18 -35 -57 -19 -36 -54 61 -38 56 -65 0
-13 16 33 17 -34 52 -18 -35 57 -36 -54 -58 61 -38 56 -65 0
-13 16 33 17 52 -18 35 53 -57 -19 -36 -54 58 56 60 -65 0
-13 16 33 17 -34 52 18 53 19 -54 -58 -61 38 56 -60 -65 0
-13 16 33 17 -34 52 -35 -53 -57 -19 36 54 61 56 -63 65 0
-13 16 33 17 -34 52 -18 -35 -53 36 54 -58 61 56 -63 65 0
-13 16 33 17 -34 52 53 36 54 -58 61 -21 -38 -56 -63 65 0
-13 16 33 17 52 35 -53 -57 -19 -36 -54 58 -61 60 -63 -65 0
-13 16 17 -34 52 53 -57 -19 -36 -54 58 -61 21 38 56 63 -65 0
16 33 17 52 35 53 57 20 37 -59 -62 21 38 56 66 0
-13 16 33 17 -34 52 -18 -53 57 -20 -37 59 62 -38 56 60 0
-13 16 17 -34 52 18 35 -53 20 -37 -55 -59 62 21 -38 63 0
-13 33 17 -34 52 18 -35 -53 -57 -20 -37 55 59 -38 56 -63 0
-13 16 33 17 -34 52 -18 -35 -53 20 -37 -59 62 -38 56 -63 0
-13 16 33 17 -34 52 -35 -53 -57 -20 -37 59 62 -38 56 -63 0
-13 16 33 52 35 53 57 -20 -37 -55 -59 62 21 -38 56 -63 0
-13 16 33 17 -34 52 -18 -35 -53 -37 55 -62 21 -38 -60 63 0
-13 16 33 17 -34 52 18 -35 -57 -20 -37 -55 62 -38 56 -66 0
-13 16 33 17 -34 52 -35 53 -37 -55 -59 -62 -21 -38 60 66 0
-13 16 33 17 -34 52 18 53 20 -55 -59 -62 38 56 -60 -66 0
-13 16 33 17 -34 52 35 53 -57 -20 -37 -55 62 56 63 -66 0
-13 16 33 17 -34 52 -18 -35 -53 37 55 -59 62 56 -63 66 0
-13 16 33 17 52 18 -35 -53 -57 37 55 59 -62 -21 -60 -63 66 0
-13 16 33 17 52 35 53 57 20 -37 -55 -59 -62 -21 -60 63 -66 0
-13 33 17 -34 52 -36 54 20 -37 -55 -59 -64 -21 -38 56 60 0
-13 16 33 17 -34 52 -19 -36 -54 -37 55 -64 21 -38 -60 65 0
-13 16 33 17 -34 52 19 -36 -58 -20 -37 -55 64 -38 56 -66 0
-13 16 33 17 -34 52 19 54 20 -55 -59 -64 38 56 -60 -66 0
-13 16 33 -34 52 19 -36 54 -20 -37 -55 -59 21 -38 -65 66 0
-13 16 33 17 -34 52 -36 -54 -58 -20 37 55 64 56 -65 66 0
-13 16 33 17 -34 52 36 54 -58 -20 -37 -55 64 56 65 -66 0
-13 16 33 17 -34 52 -19 -36 -54 37 55 -59 64 56 -65 66 0
-13 16 33 17 -34 52 -36 54 20 -37 -59 -21 -38 -56 -65 66 0
-13 16 33 17 -34 52 54 -20 -37 -55 -64 38 56 -60 65 66 0
-13 16 33 17 52 58 -20 -37 -55 59 -64 38 -56 -60 -65 -66 0
-13 16 17 -34 52 36 54 58 20 -37 -55 -59 -64 -21 56 65 -66 0
-13 16 33 17 52 19 -36 -54 -58 37 55 59 -64 -21 -60 -65 66 0
-13 16 33 17 52 36 54 58 20 -37 -55 -59 -64 -21 -60 65 -66 0
-13 16 33 17 -36 -54 -58 -20 37 55 59 64 -21 -38 -60 -65 66 0
-13 16 33 52 19 -36 -58 -20 -37 -55 -59 64 21 56 60 65 -66 0
-13 16 17 -34 52 36 54 58 -20 55 64 21 -38 -56 -60 -65 -66 0
16 33 17 -34 52 19 36 54 -20 -59 64 -21 -38 -56 60 -65 -66 0
-13 16 17 -34 52 19 36 54 55 -59 64 -21 -38 -56 60 -65 -66 0
-13 33 18 35 -53 -19 -36 -54 -61 -20 37 55 64 -21 -65 66 0
-13 33 18 35 -53 -19 36 54 -20 -37 -55 -62 64 -21 65 -66 0
-13 16 33 -18 -35 -53 36 54 61 20 -55 -62 -64 -63 65 -66 0
-13 16 33 -18 -35 -53 19 -54 -61 37 55 62 -64 -63 -65 66 0
-13 -34 -35 -57 19 -58 -61 -20 -37 -59 64 -21 -38 -63 -65 0
-13 -34 -18 57 -19 -36 -61 -20 -37 -59 62 -38 -60 -63 -65 0
-13 -34 -18 -35 19 -58 -61 -20 -37 -59 64 -38 -60 -63 -65 0
-13 -34 -18 -35 -36 -58 -61 -20 -59 62 64 -21 -38 -60 -66 0
-13 -34 -18 57 -19 -36 58 -61 -20 -37 -59 -21 -60 -63 -66 0
-13 -34 -18 57 -19 -36 -58 61 -20 -37 -62 -38 -60 -63 -66 0
-13 -34 -18 -35 -19 -36 -58 20 -59 -62 64 -38 -60 -63 -66 0
-13 -34 -57 -19 -36 -58 -61 -20 -62 -64 -21 -38 -60 63 66 0
-13 -34 -18 -19 -36 -58 -61 -59 -62 -64 -21 -38 -60 63 66 0
-13 -34 -18 -19 -36 -58 61 -59 -62 64 -21 -38 -60 -63 -66 0
-13 -34 -57 -19 -36 -58 -61 -20 -37 -59 62 -21 -63 -65 66 0
-13 -34 -18 -19 -36 -58 -61 -20 -37 -59 62 -60 -63 -65 66 0
-13 -34 -18 -35 -57 -19 -36 -58 -20 -62 64 -60 -63 65 -66 0
-13 -34 -18 -35 -36 -58 -61 -20 -37 -59 -21 60 -63 -65 66 0
-13 -34 -18 -35 -36 -58 -61 -20 -37 -59 21 -60 -63 -65 66 0
-13 -34 -18 -35 -36 -58 -61 -20 -37 -59 -21 60 -63 65 -66 0
-13 -34 -35 -57 -19 -36 -58 -20 -37 -62 -21 60 -63 65 -66 0
-13 -18 35 57 19 36 58 -61 -20 -37 -59 64 -21 60 -63 65 -66 0
14 15 16 46 17 41 52 42 48 -53 -57 19 43 49 61 0
14 15 -39 16 46 17 52 -18 -42 -48 53 -57 19 43 -49 -54 0
14 15 -39 16 17 41 52 -18 -42 -48 -53 57 19 -43 49 -58 0
14 15 -39 16 46 17 52 18 42 -48 -53 -19 -43 -49 54 -58 0
14 15 -39 16 17 41 52 18 -42 48 -57 -19 -43 -49 -54 58 0
14 15 -39 16 -40 46 17 41 -47 -18 -48 53 -57 19 54 -61 0
14 15 -39 16 -40 46 17 41 -47 18 57 -19 -43 -54 58 -61 0
14 15 -39 16 -40 46 17 41 -47 18 53 -19 -49 54 -58 -61 0
14 15 -39 16 -40 17 52 18 -42 -48 -53 -57 -19 -43 49 -54 58 0
14 15 -39 16 -40 17 52 -18 -42 48 -53 57 19 -43 -49 -54 -58 0
14 15 -39 16 17 -47 52 18 -42 -48 -53 -57 -19 43 -49 54 -58 0
14 15 -39 16 17 -47 52 -18 42 -48 53 -57 19 -43 -49 -54 -58 0
14 -39 16 46 17 41 -47 52 -18 42 -48 -53 -57 19 -43 54 -61 0
14 15 -39 16 46 17 41 52 -18 42 -48 -53 -57 -43 54 -58 -61 0
14 -39 16 46 17 41 -47 52 18 -42 53 -19 43 -49 -54 -58 -61 0
14 15 -39 16 46 17 52 -18 -42 -48 53 -57 20 44 -50 -55 0
14 15 -39 16 17 41 52 -18 -42 -48 -53 57 20 -44 50 -59 0
14 15 -39 16 46 17 52 18 42 -48 -53 -20 -44 -50 55 -59 0
14 15 -39 16 17 41 52 18 -42 48 -57 -20 -44 -50 -55 59 0
14 15 -39 16 -40 46 17 41 -47 -18 -48 53 -57 20 55 -62 0
14 15 -39 16 -40 17 52 18 -42 -48 -53 -57 -20 -44 50 -55 59 0
14 15 -39 16 -40 17 52 -18 -42 48 -53 57 20 -44 -50 -55 -59 0
14 15 -39 16 17 -47 52 18 -42 -48 -53 -57 -20 44 -50 55 -59 0
14 15 -39 16 17 -47 52 -18 42 -48 53 -57 20 -44 -50 -55 -59 0
14 -39 16 -40 46 41 -47 52 -18 -48 53 -57 20 -44 -50 55 -62 0
14 -39 16 46 17 41 -47 52 18 -42 53 -20 44 -50 -55 -59 -62 0
15 -39 16 46 17 41 52 42 48 53 57 21 45 -51 60 0
14 15 -39 16 17 41 52 18 -42 48 -57 -21 -45 -51 -56 60 0
14 15 -39 16 -40 46 17 41 -47 -18 -48 53 -57 21 56 -63 0
14 15 -39 16 -40 46 17 41 -47 -18 -42 -53 57 21 60 -63 0
14 15 -39 16 -40 46 17 41 -47 18 57 -21 -45 -56 60 -63 0
14 15 -39 16 -40 46 17 41 -47 18 53 -21 -51 56 -60 -63 0
14 15 -40 17 41 52 -18 -48 53 -57 21 -45 -51 -56 -60 -63 0
15 -39 16 -40 46 17 41 52 -18 -42 48 -53 -57 21 -51 60 -63 0
14 15 16 46 17 41 52 19 43 49 44 50 -55 -59 64 0
14 15 -39 16 46 17 52 -19 -43 -49 54 -58 20 44 -50 -55 0
14 15 -39 16 17 41 52 -19 -43 -49 -54 58 20 -44 50 -59 0
14 15 -39 16 17 41 52 19 -43 49 -58 -20 -44 -50 -55 59 0
14 15 -39 16 -40 46 17 41 -47 -19 -49 54 -58 20 55 -64 0
14 15 -39 16 -40 46 17 41 -47 19 58 -20 -44 -55 59 -64 0
14 15 -39 16 -40 46 17 41 -47 19 54 -20 -50 55 -59 -64 0
14 15 -39 16 -40 17 52 19 -43 -49 -54 -58 -20 -44 50 -55 59 0
14 15 -39 16 -40 17 52 -19 -43 49 -54 58 20 -44 -50 -55 -59 0
14 15 -39 16 17 -47 52 19 -43 -49 -54 -58 -20 44 -50 55 -59 0
14 15 -39 16 17 -47 52 -19 43 -49 54 -58 20 -44 -50 -55 -59 0
14 15 -39 46 17 41 -47 52 -19 -43 -54 58 -44 -50 -55 59 -64 0
14 15 -39 16 17 41 52 43 -49 -54 58 -20 -44 -50 -55 -59 64 0
14 15 -39 16 -40 46 17 41 -47 -19 -49 54 -58 21 56 -65 0
14 15 16 46 17 41 -47 19 -43 49 -58 -21 -45 51 -56 -65 0
14 15 -39 16 -40 46 17 41 -47 19 58 -21 -45 -56 60 -65 0
14 15 -39 16 17 -47 52 -19 43 -49 54 -58 21 -45 -51 -56 -60 0
15 -39 16 -40 46 17 41 52 -19 -43 49 -54 -58 21 -51 60 -65 0
14 15 -39 46 17 41 -47 52 -43 -49 -54 58 -21 -45 -56 60 -65 0
14 15 16 46 17 41 52 -44 50 55 59 21 45 51 -66 0
14 15 16 46 17 41 52 20 44 50 -45 51 56 60 -66 0
14 15 -39 16 -40 46 17 41 -47 -20 -44 -55 59 21 60 -66 0
14 15 -39 16 -40 46 17 41 -47 20 59 -21 -45 -56 60 -66 0
14 15 -39 16 -40 46 17 41 -47 20 55 -21 -51 56 -60 -66 0
14 15 -39 16 17 -47 52 -20 44 -50 55 -59 21 -45 -51 -56 -60 0
15 -39 -40 46 17 41 -47 52 20 -44 -50 59 -21 -45 -56 60 -66 0
14 15 -39 16 46 17 41 52 -50 -55 59 -21 -45 51 -56 -60 -66 0
14 15 -39 16 -40 46 -42 -48 53 -19 -49 54 61 20 -44 55 0
14 15 -39 16 -40 46 -18 -48 53 -43 -49 54 61 20 -44 55 0
14 15 -39 16 46 -18 -42 -48 53 19 54 -61 20 44 -50 -55 0
14 15 -39 -40 46 18 -42 -19 -43 -49 54 -61 20 -44 50 -55 0
14 15 -39 16 -40 46 -18 -42 -48 -43 49 -54 61 20 -44 -62 0
14 15 -39 16 -40 46 -18 -42 -48 19 -43 -61 -44 50 -55 62 0
14 15 -39 -40 46 18 -42 19 -43 49 -54 -20 -44 -50 55 -62 0
14 15 -39 -40 46 18 -42 48 -53 -19 -43 -49 54 20 -44 -64 0
14 15 -39 16 -40 46 -42 -48 53 -19 -43 -54 61 20 -44 -64 0
14 15 -39 16 -40 46 18 -42 -19 -43 -54 -61 -44 -50 55 64 0
14 15 -39 -40 46 18 -42 48 -53 19 -43 -20 -44 -50 55 -64 0
14 15 -39 16 46 18 42 -48 -53 19 54 -20 -44 -50 55 -64 0
14 15 -39 16 -40 46 -42 48 -53 19 -43 -20 -44 -50 62 -64 0
14 15 -39 16 -40 46 18 -42 -43 49 -54 -20 -44 -50 -62 64 0
14 15 -39 16 -40 46 18 -19 -43 -54 -61 20 44 -50 62 64 0
14 15 -39 16 -40 46 18 19 43 -54 61 -20 -44 -50 -62 64 0
14 15 -39 16 -40 46 -42 53 19 -43 54 -61 -20 55 62 -64 0
14 15 -39 16 -40 46 -42 -48 53 19 -43 -20 -44 -55 62 -64 0
14 15 -39 16 -40 46 -18 -42 -48 19 -61 20 44 -55 62 64 0
14 15 -39 16 -40 46 18 42 -48 19 61 -20 -44 -55 62 -64 0
14 15 -39 16 -40 46 18 -19 -43 -49 -61 20 44 -55 62 64 0
15 -39 -40 46 -18 42 19 -43 49 61 -20 -44 50 -55 -62 -64 0
14 15 16 -40 46 48 -19 43 -49 -61 -20 -44 50 -55 -62 -64 0
14 15 -39 16 -40 -18 -42 -48 53 19 49 61 20 -44 -50 -55 -64 0
14 -39 16 -40 46 42 48 53 -19 -49 54 -61 -20 -44 -50 55 -64 0
14 15 -39 16 -40 -18 -42 -48 53 19 -43 -49 -54 20 50 62 -64 0
14 15 16 -40 46 -18 -42 -48 53 -49 -54 -61 20 44 50 -62 64 0
15 -39 16 -40 46 18 -53 -19 -43 -49 54 -61 20 44 50 62 -64 0
14 -39 16 -40 46 -18 -42 -48 53 43 49 54 -20 -50 55 -62 -64 0
14 15 16 -40 46 -48 -53 19 43 49 61 -20 -44 -50 55 -62 -64 0
14 15 -39 -40 46 -18 -42 -48 53 19 -43 49 -54 21 -45 -63 0
14 15 -39 16 -40 46 -18 -42 -48 -43 49 -54 61 21 -45 -63 0
14 15 -39 16 -40 46 -18 -42 -53 -43 -49 54 61 21 -45 -63 0
14 15 -39 16 -40 46 -18 -42 -48 19 -43 -61 -45 51 -56 63 0
14 15 -39 16 -40 46 -42 48 -53 -19 -43 -49 61 21 -45 -65 0
15 -39 16 -40 46 -18 -42 -48 53 -19 43 54 61 -45 56 65 0
14 15 -39 16 -40 46 -18 -42 -53 19 43 -49 61 21 -63 65 0
14 15 -39 16 -40 46 18 42 -53 -19 -43 -49 61 21 63 -65 0
14 15 -39 16 -40 46 -18 -42 -48 19 43 -54 61 21 -63 65 0
14 15 -39 16 -40 46 18 42 -48 -19 -43 -54 61 21 63 -65 0
14 15 16 -40 46 -18 42 -48 -19 -43 49 -54 -61 51 -63 -65 0
14 15 -39 16 -40 46 18 -42 -43 49 -54 -21 -45 -51 -63 65 0
14 15 -39 16 -40 46 18 -19 -43 -54 -61 21 45 -51 63 65 0
14 15 -39 16 -40 46 18 19 43 -49 61 -21 -45 -56 -63 65 0
14 15 16 -40 46 18 -42 53 19 43 -61 -21 -51 56 -63 -65 0
15 -39 16 -18 -42 -48 -53 19 -43 49 -54 61 21 45 51 56 -63 0
14 15 -40 46 18 42 48 53 -19 -43 -49 54 -61 21 -51 -56 -65 0
14 15 16 -40 46 -48 -53 -19 -43 -49 54 -61 21 45 51 63 -65 0
14 15 -39 16 42 -48 -53 -19 -43 -49 -54 61 21 45 56 63 -65 0
14 15 -39 -40 46 18 -42 -20 -44 -50 55 -62 21 -45 51 -56 0
14 15 -39 -40 46 -18 -42 -48 53 20 -44 50 -55 21 -45 -63 0
14 15 -39 16 -40 46 -18 -42 -48 -44 50 -55 62 21 -45 -63 0
14 15 -39 16 -40 46 -18 -42 -53 -44 -50 55 62 21 -45 -63 0
14 15 16 -40 46 -18 -42 48 -53 20 44 -50 -55 21 51 -63 0
14 15 -39 16 -40 46 18 53 -20 -50 55 -62 21 45 -51 -66 0
14 15 -39 16 -40 46 18 42 -48 -20 -50 55 -62 21 56 -66 0
14 15 -39 16 -40 46 -18 -42 -53 20 44 -50 62 21 -63 66 0
14 15 -39 16 -40 46 18 42 -53 -20 -44 -50 62 21 63 -66 0
14 15 -39 16 -40 46 -18 -42 -48 20 44 -55 62 21 -63 66 0
14 15 -39 16 -40 46 18 42 -48 -20 -44 -55 62 21 63 -66 0
14 15 16 -40 46 -18 -42 48 -53 -20 44 -50 -62 51 -63 -66 0
14 15 16 -40 46 -18 42 -48 -20 -44 50 -55 -62 51 -63 -66 0
14 15 -39 16 -40 46 -42 -48 53 20 -44 -21 -45 -56 63 -66 0
14 15 -39 16 -40 46 18 -20 -44 -50 -62 21 45 -56 63 66 0
14 16 -40 -18 42 -48 -20 -44 -50 -55 -62 21 51 56 -63 66 0
14 15 16 -40 46 -18 42 -48 50 -62 -21 -45 51 -56 -63 -66 0
15 -39 16 -40 46 -18 -42 48 -53 20 44 55 -62 21 -51 -63 66 0
15 -39 16 -40 46 -18 -42 -48 53 20 -55 -62 21 45 51 -63 66 0
15 -39 16 -40 46 18 -53 -20 -44 -50 55 -62 21 45 51 63 -66 0
14 15 16 -40 46 -18 -42 -48 53 20 44 50 -62 -51 -56 -63 66 0
14 15 -39 16 46 19 54 -20 -44 -50 55 -64 21 45 -51 -56 0
14 15 -39 -40 46 -19 -43 -49 54 20 -44 50 -55 21 -45 -65 0
14 15 -39 16 -40 46 -19 -43 -49 -44 50 -55 64 21 -45 -65 0
14 15 -39 16 -40 46 -43 49 -54 -20 -44 -50 64 21 -45 -66 0
14 15 -39 16 -40 46 19 43 -54 -20 50 -55 -64 21 51 -66 0
14 15 -39 16 -40 46 -19 -43 -54 20 44 -50 64 21 -65 66 0
14 15 -39 16 -40 46 19 43 -54 -20 -44 -50 64 21 65 -66 0
14 15 -39 16 -40 46 -19 -43 -49 20 44 -55 64 21 -65 66 0
14 15 -39 16 -40 46 19 43 -49 -20 -44 -55 64 21 65 -66 0
14 15 16 -40 46 -19 43 -49 -20 -44 50 -55 -64 51 -65 -66 0
14 15 -39 16 -40 46 19 43 -54 20 64 -21 -45 -51 65 -66 0
14 15 16 -40 46 49 -20 -44 50 -55 -64 -21 45 -51 -65 -66 0
14 15 -39 16 -40 19 -43 54 -20 -44 -50 -55 -45 56 -65 66 0
14 15 -39 16 -40 46 -19 -43 -49 20 -64 21 45 -56 65 66 0
14 -39 16 -40 46 -19 -49 54 -20 -44 -50 55 -64 45 51 56 -65 0
14 16 -40 46 -43 -49 -54 20 44 50 -55 64 -21 -45 -51 -65 66 0
15 -39 16 -40 46 19 43 49 20 -55 64 -21 -45 -51 56 -65 -66 0
14 15 -39 41 -47 -18 -42 -48 57 19 -49 -61 20 44 -50 -59 0
14 15 -39 41 -47 18 -48 -19 -43 -49 58 -61 20 44 -50 -59 0
14 15 -39 17 41 -47 -18 -42 -48 43 -49 -58 61 20 -50 -62 0
14 15 -39 17 41 -47 42 -48 -57 19 43 -49 -20 44 -59 62 0
14 15 -39 17 41 -47 -18 -42 -48 19 -49 -61 44 -50 -59 62 0
14 15 -39 17 41 -47 18 -48 -19 -43 -49 -61 44 -50 -59 64 0
14 15 -39 17 41 -47 -18 -42 -48 19 49 -58 61 20 -62 64 0
14 15 -39 17 41 -47 18 -42 48 -19 -49 -58 61 20 62 -64 0
14 15 -39 17 41 -47 18 -48 43 -49 -58 -20 -44 -50 -62 64 0
14 15 -39 17 41 -47 -18 -48 -57 19 -61 20 -44 50 62 64 0
14 15 -39 17 41 -47 18 19 49 -58 61 -20 -44 -50 -62 64 0
14 15 -39 17 41 -47 18 -42 48 19 61 -20 -50 -59 62 -64 0
14 15 -39 17 41 -47 18 -19 -43 -49 -61 20 50 -59 62 64 0
14 15 -39 17 -47 18 -42 -48 -57 19 43 -61 -20 -44 -50 59 64 0
14 15 -39 17 41 18 -42 -48 -57 19 -49 -61 -20 -44 -50 59 64 0
14 15 -39 17 41 -47 18 -42 -48 -19 -43 58 -61 20 -50 -62 64 0
14 -39 17 41 -47 -18 -42 -48 57 19 -58 -61 20 44 50 -62 64 0
15 17 41 -47 -42 -48 -57 -19 -43 -49 -61 20 44 50 -59 62 64 0
15 -39 17 41 -47 -18 42 -48 -57 19 -43 -49 58 21 -51 -63 0
14 15 -39 17 41 -47 -18 -48 -57 -43 -49 58 61 21 -51 -63 0
14 15 17 -47 18 42 48 -19 -43 -49 -58 61 21 -51 60 -63 0
14 15 -39 17 41 -47 42 -48 -57 -19 -43 -49 61 21 -51 -65 0
14 15 -39 17 41 -47 18 -48 -19 -49 -58 -61 -45 -51 60 65 0
14 15 -39 17 41 -47 -18 -48 -57 19 -43 49 61 21 -63 65 0
14 15 -39 17 41 -47 -18 -42 -48 19 49 -58 61 21 -63 65 0
14 15 -39 17 41 -47 18 -42 48 -19 -49 -58 61 21 63 -65 0
14 15 17 41 -47 -18 42 -48 -57 -19 -43 49 -61 45 -63 -65 0
14 15 -39 17 -47 18 42 -48 -19 -43 -49 -58 45 -51 -63 65 0
14 15 17 41 -47 -18 42 -48 -57 43 -61 -21 -45 51 -63 -65 0
14 15 -39 17 41 -47 -18 -42 -48 19 -61 21 51 -60 63 65 0
14 15 -39 17 41 -47 18 -19 -43 -49 -61 21 51 -60 63 65 0
14 17 -47 -18 -42 -48 -57 19 -43 -49 58 61 21 45 51 60 -63 0
14 -39 17 41 -47 -18 -42 -48 57 19 43 49 -61 21 -60 -63 65 0
14 15 -39 17 41 18 57 -20 -44 -50 59 -62 21 -45 51 -60 0
14 15 -39 17 41 -47 -18 -48 -57 -44 -50 59 62 21 -51 -63 0
14 15 -39 17 41 -18 -42 -48 57 20 -44 50 -59 21 60 -63 0
14 15 -39 41 -47 18 42 -48 -57 -20 -44 -50 59 21 -51 -66 0
14 15 -39 17 41 -47 42 -48 -57 -20 -44 -50 62 21 -51 -66 0
14 15 -39 17 41 -47 -42 -48 57 -20 -50 -59 62 21 -51 -66 0
14 15 -39 17 41 -47 -18 -48 -57 20 -44 50 62 21 -63 66 0
14 15 -39 17 41 -47 -18 -42 -48 20 50 -59 62 21 -63 66 0
14 15 -39 17 41 -47 18 -42 48 -20 -50 -59 62 21 63 -66 0
14 15 17 41 -47 -18 42 -48 -57 -20 -44 50 -62 45 -63 -66 0
14 15 17 41 -18 -48 -57 20 -44 -59 -62 21 -45 51 63 66 0
14 15 -39 17 41 -47 18 -20 -50 -59 -62 21 -45 51 63 66 0
14 15 -39 17 41 -18 -42 48 -57 20 50 59 -62 -51 60 -63 -66 0
14 15 17 41 -47 -42 -57 20 44 50 62 -21 -45 -51 60 -63 -66 0
14 15 -39 17 41 -47 -19 43 -58 20 50 -59 -64 21 45 -65 0
14 15 -39 17 41 -19 -43 -49 58 20 -44 50 -59 21 60 -65 0
14 15 17 -47 19 43 49 -20 -44 -50 -59 64 21 -51 60 -65 0
14 15 -39 41 -47 19 43 -49 -58 -20 -44 -50 59 21 -51 -66 0
14 15 -39 17 41 -47 43 -49 -58 -20 -44 -50 64 21 -51 -66 0
14 15 -39 17 41 -47 -43 -49 58 -20 -50 -59 64 21 -51 -66 0
14 15 -39 17 41 -47 19 -43 49 -20 -44 59 -64 21 60 -66 0
14 15 -39 17 41 -47 19 -49 -20 -44 -50 -64 45 -51 -60 66 0
14 15 -39 17 41 -47 -19 -49 -58 20 -44 50 64 21 -65 66 0
14 15 -39 17 41 -47 19 49 -58 -20 -44 -50 64 21 65 -66 0
14 15 -39 17 41 -47 -19 -43 -49 20 50 -59 64 21 -65 66 0
14 15 -39 17 41 -47 19 -43 49 -20 -50 -59 64 21 65 -66 0
14 15 -39 17 41 -47 43 -49 -58 20 -50 -21 -45 -51 65 -66 0
14 15 17 41 -47 43 -20 44 -50 -59 -64 -21 -45 51 -65 -66 0
14 15 -39 17 41 -19 49 -58 -20 -44 -50 59 -64 60 -65 -66 0
14 15 -39 41 -47 -19 43 -49 -58 -20 44 -59 -64 45 51 60 -66 0
14 -39 17 41 -47 -19 -43 -49 58 20 44 50 -64 21 -60 -65 66 0
14 -39 17 41 -47 19 43 49 20 -59 64 -21 -45 -51 60 -65 -66 0
14 15 -39 -18 -48 19 -43 49 61 20 44 -50 -62 21 -63 65 0
14 15 -39 -18 -42 -48 19 43 61 20 -44 50 -64 21 -63 65 0
14 15 -39 18 42 19 -43 49 -61 -20 -44 -50 62 21 63 -66 0
14 15 -39 18 -42 48 -19 -43 -61 20 44 -50 64 21 -65 66 0
14 15 -39 18 42 -48 -19 -49 -61 20 -44 50 64 21 -65 66 0
14 15 -39 18 42 -48 19 49 -61 -20 -44 -50 64 21 65 -66 0
14 15 -39 18 -42 48 -19 -43 -49 20 44 -62 64 21 -65 66 0
14 18 42 48 -19 -43 -49 61 -20 -50 -62 -64 21 -45 -65 66 0
15 18 42 48 -19 -43 -49 61 -20 -44 -62 -64 21 -51 -65 66 0
15 18 42 48 -19 -43 -61 -20 -44 -50 62 -64 21 -51 65 -66 0
14 15 -39 18 -19 -43 -49 -61 44 -50 -62 64 21 45 63 -65 66 0
14 15 -39 -42 -48 -19 -43 -61 20 44 -50 62 64 51 -63 -65 66 0
14 16 17 41 52 42 -53 19 43 -54 61 44 55 59 62 0
14 16 17 41 52 42 -53 57 19 54 -61 20 44 62 64 0
14 16 17 41 52 18 53 -43 54 58 61 20 44 62 -64 0
14 16 17 41 52 18 42 43 -54 58 61 20 55 62 -64 0
14 16 17 41 52 18 42 53 -43 54 58 -44 55 62 64 0
14 16 17 41 52 42 57 54 58 61 20 44 -55 62 -64 0
14 16 17 41 52 53 57 19 -43 54 61 44 59 62 -64 0
14 16 17 41 52 53 57 19 43 54 -61 44 59 62 -64 0
14 16 17 41 52 18 42 -53 54 58 -61 44 59 62 64 0
14 16 17 41 52 42 57 19 -43 54 -61 55 59 62 64 0
14 16 17 41 52 42 57 19 43 -54 61 55 59 62 -64 0
14 16 17 41 52 18 42 19 54 61 -44 55 59 -62 64 0
14 16 17 41 52 18 42 19 54 61 44 -55 59 62 -64 0
14 16 17 41 52 18 42 19 54 61 44 55 59 -62 -64 0
14 -40 17 41 52 18 57 19 -43 -54 -58 -61 -20 -44 55 59 0
14 16 17 41 52 18 -42 -19 -43 -54 58 -61 20 -44 -59 62 0
14 16 17 41 52 18 -53 -19 -43 -54 58 -61 20 -55 -59 62 0
14 16 -40 17 41 18 57 19 -43 54 -58 -20 -44 -55 59 -62 0
16 -40 17 41 52 18 57 -19 43 -54 58 20 -44 -55 -59 -62 0
14 16 17 41 52 -42 57 -19 -43 58 61 20 -44 -55 -59 -62 0
14 16 17 41 52 18 -53 19 -54 -58 61 -20 -44 -55 59 -62 0
14 16 -40 17 52 18 42 -53 -57 -19 -43 -54 58 20 59 -64 0
14 16 17 41 52 18 -42 -53 -57 -43 58 -61 -20 -44 59 64 0
14 16 17 41 52 18 -53 -57 19 -54 61 -20 -44 -55 59 -64 0
14 16 17 41 52 -18 -42 -53 57 19 -54 -58 20 -55 -62 64 0
14 16 17 41 52 18 -42 -53 -57 -19 -43 58 -44 59 -62 64 0
14 16 17 41 52 -18 -42 57 19 -43 -54 -58 -44 59 62 -64 0
14 16 17 52 18 -53 -57 -19 -43 -54 -61 20 44 -59 62 64 0
16 17 41 52 18 -53 -19 -43 -58 61 -20 -44 -55 59 -62 -64 0
14 16 -40 17 52 18 -42 19 -43 -54 -58 -61 -20 -44 -55 59 62 0
16 -40 17 41 52 -42 57 -19 -43 -54 58 -61 20 -44 -55 -59 62 0
16 -40 17 41 52 -42 57 19 -43 -54 -58 61 -20 -44 -55 59 -62 0
14 -40 17 41 52 -53 57 -19 -43 -54 58 -61 20 -44 -55 -59 62 0
14 16 -40 17 52 18 -42 -53 -57 19 -43 -61 -20 -44 -55 59 64 0
14 16 -40 17 52 -18 -42 -53 57 19 -43 61 20 -44 -55 -59 -64 0
16 -40 17 41 52 -18 -42 -53 57 -43 58 -61 20 -44 -55 -59 64 0
16 -40 17 41 52 18 -42 -53 -57 -43 58 61 -20 -44 -55 59 -64 0
14 16 17 41 52 -42 53 57 -19 -43 -54 -58 61 20 -55 -62 -64 0
16 -40 17 41 52 -18 -42 -53 57 19 -43 -54 -58 -44 59 -62 64 0
16 -40 17 41 52 18 -42 -53 -57 -19 -43 -54 58 -44 59 62 -64 0
14 -40 17 41 52 -18 -42 -53 57 19 -43 -54 -58 -55 59 -62 64 0
16 17 41 52 -18 -42 53 -19 -43 -54 -58 61 -44 55 59 62 -64 0
14 16 17 41 52 18 -42 53 -54 58 -61 -20 -44 -55 -59 62 -64 0
14 16 17 41 52 42 -53 57 19 54 -61 21 45 63 65 0
14 16 17 41 52 -42 57 19 -43 -54 -58 -61 -21 -45 60 63 0
14 16 -40 17 52 18 57 19 43 -54 -58 -21 -45 -56 60 -63 0
14 -40 17 41 52 18 -42 -53 -57 -19 54 -58 -61 21 -63 -65 0
14 -40 17 41 52 -18 53 -57 19 -43 -54 -58 -61 21 -63 -65 0
14 16 17 52 18 42 -57 -19 -43 -54 61 21 -56 -60 63 -65 0
14 16 17 41 -18 -42 -53 43 -58 61 21 -45 -56 -60 -63 -65 0
16 -40 17 41 52 18 -19 43 -58 -61 21 -45 -56 -60 -63 -65 0
14 16 -40 17 52 18 -42 19 -43 -54 -58 -61 -21 -45 -56 60 63 0
14 16 17 41 52 53 57 44 59 62 21 45 56 -63 -66 0
14 16 -40 17 52 18 57 -20 -44 -55 59 -62 21 45 -56 -60 0
14 16 17 41 52 -42 57 20 -44 -55 -59 -62 -21 -45 60 63 0
14 16 41 18 -42 -53 -57 -20 -44 -55 59 -62 21 45 -60 -63 0
14 16 17 41 52 18 -42 -53 -57 -44 59 -62 -21 -45 60 66 0
14 16 17 41 52 18 -53 -57 20 -55 62 -21 -45 -56 60 -66 0
14 17 41 52 -42 -53 -57 -20 -44 -55 59 -62 -21 45 63 -66 0
14 16 -40 17 52 -18 42 -57 -20 -44 -55 59 -62 60 -63 -66 0
14 16 17 41 52 -18 -42 57 20 -44 -55 -59 -45 60 63 -66 0
14 17 41 52 18 -42 -53 -57 -20 55 59 21 -56 60 -63 -66 0
14 16 17 41 -42 57 20 -44 -55 -59 -62 -21 -56 -60 63 -66 0
-40 17 41 -18 42 -53 57 -20 -44 -55 -59 62 21 45 56 60 -66 0
14 16 17 41 52 19 54 44 55 59 -64 21 45 65 -66 0
14 16 17 41 52 -43 54 58 20 44 55 -45 56 65 66 0
14 16 17 41 52 43 58 20 44 -55 64 56 60 65 -66 0
14 16 17 41 52 19 54 20 44 64 45 56 60 -65 -66 0
14 16 -40 17 52 19 43 -54 -58 -20 -44 -55 59 21 60 -66 0
14 -40 17 41 52 -19 -43 54 58 20 -44 -55 -59 21 60 -66 0
14 16 17 41 52 19 -43 -54 -58 -20 -44 59 -45 60 -65 66 0
14 16 -40 17 52 58 -20 44 -59 -64 -21 -45 -56 60 -65 -66 0
14 16 -40 19 54 58 -20 44 -59 -64 -21 -45 -56 -60 65 -66 0
16 17 41 52 -19 54 -44 -55 -59 64 -21 -45 -56 60 -65 -66 0
14 16 -40 17 41 19 -54 -20 -44 -55 59 64 21 -45 -56 -60 -65 0
14 16 17 41 19 -43 -54 -20 -44 55 59 -64 21 -45 -56 -60 -65 0
14 16 17 41 52 -19 -43 -54 -58 -44 55 59 64 21 -56 -65 -66 0
14 16 17 41 52 -19 -43 -54 -58 -44 59 -64 21 45 -56 65 -66 0
14 16 17 41 52 19 -43 54 -20 -44 -55 -59 64 -56 60 -65 -66 0
14 16 -40 17 52 -43 54 58 20 59 -64 -21 -45 -56 -60 65 -66 0
14 -40 -53 19 43 -54 61 -20 -44 -55 -62 64 -21 45 56 -66 0
14 16 -40 -18 53 19 43 -61 -20 -44 -55 -62 64 -63 65 -66 0
14 16 -40 -42 -53 19 43 -54 61 -20 -44 -62 64 56 -63 65 -66 0
14 17 41 -18 -42 -19 43 -58 -61 20 -59 62 -64 45 -63 -65 0
14 17 41 -18 -42 -19 43 -58 -61 44 -59 62 64 45 -63 66 0
14 17 41 42 -19 43 -58 44 -59 62 64 -21 -45 -63 -65 66 0
17 41 18 57 -19 -43 58 -20 44 -59 62 -64 -21 -45 60 -63 -65 0
14 41 18 42 19 -43 58 -61 -20 44 -59 -62 45 -60 -63 -65 -66 0
15 16 46 17 52 -48 53 57 19 58 61 20 50 -62 64 0
15 16 46 17 52 18 -48 57 54 58 61 50 55 -62 64 0
15 16 46 17 52 18 48 57 54 58 -61 50 55 -62 64 0
15 16 46 17 52 -48 53 57 19 49 -61 20 59 62 64 0
15 16 46 17 52 18 48 -49 54 58 -61 20 59 62 64 0
15 16 46 17 52 18 48 49 54 -58 61 20 59 62 -64 0
15 16 46 17 52 53 57 49 54 61 20 50 -59 -62 64 0
15 16 46 17 52 48 53 54 58 61 20 50 -59 62 -64 0
15 16 46 17 52 48 53 54 58 61 20 50 59 -62 -64 0
15 16 46 17 52 48 53 19 49 58 -61 55 59 62 -64 0
15 16 46 17 52 18 57 19 49 61 -50 55 59 62 -64 0
15 16 46 17 52 -48 53 19 -49 -54 -58 -61 -20 -50 55 62 0
15 16 46 17 52 18 -57 -19 -49 54 -58 -61 20 -55 -59 62 0
15 16 46 17 52 -48 53 -19 -49 54 61 20 -50 -55 -59 -62 0
15 16 46 17 52 18 -57 19 -54 -58 61 -20 -50 55 -59 -62 0
15 16 46 17 52 -18 -48 53 -57 19 -58 -61 20 -55 -59 64 0
15 16 46 17 52 -18 -48 53 -49 54 61 20 -50 -55 -59 -64 0
15 16 46 17 52 18 -53 -57 19 -58 61 -20 -50 55 -59 -64 0
15 16 46 17 52 18 -48 -53 -19 -49 54 -58 20 -50 62 -64 0
15 16 46 17 52 -18 -48 53 19 -49 -54 -58 -50 55 62 -64 0
15 16 46 17 -18 -53 -57 -49 54 61 20 -50 -55 -59 -62 -64 0
16 46 17 52 -18 -48 -53 19 -58 61 -20 -50 55 -59 -62 -64 0
16 46 17 -47 52 -48 53 -19 -49 54 -58 -61 20 -50 -55 -59 62 0
15 16 46 17 18 -48 -57 19 -49 -54 -58 -61 -20 -50 55 59 -62 0
15 16 46 -47 52 53 -57 -19 -49 54 -58 -61 20 -50 -55 -59 62 0
15 16 46 17 18 -53 -57 -19 49 -54 58 -61 20 -50 -55 -59 -62 0
15 16 46 52 -18 53 -57 -19 -49 54 -58 -61 -20 50 -55 59 -62 0
15 16 17 -47 52 -18 -48 53 -57 19 -49 61 20 -50 -55 -59 -64 0
16 46 17 -47 52 -18 -48 53 -57 -49 54 -61 20 -50 -55 -59 64 0
15 16 46 17 -47 18 -48 -53 -57 19 -58 -61 -20 -50 55 -59 64 0
15 16 46 -47 52 18 -48 -53 -57 54 -58 61 -20 -50 55 -59 -64 0
15 16 17 -47 52 -18 -48 53 -57 19 -49 -54 -58 20 -50 62 -64 0
15 16 46 17 52 -48 53 57 -19 -49 -54 -58 61 20 -59 -62 -64 0
15 16 46 52 -18 -48 -53 -57 19 54 -58 -61 20 -50 -59 62 64 0
15 16 46 17 52 18 -57 -49 54 58 -61 -20 -50 -55 -59 -62 64 0
15 16 46 17 52 53 57 19 49 -58 -61 51 56 63 65 0
15 16 46 17 52 48 53 54 58 61 21 51 -60 63 -65 0
15 16 46 -47 52 18 -48 -53 -57 -19 -49 54 58 21 56 -63 0
15 16 46 17 52 -48 53 19 -49 -54 -58 -61 -21 -51 56 63 0
16 46 -47 52 18 53 57 49 54 -58 -61 -21 -51 -56 -60 63 0
15 16 46 -47 52 -18 -48 53 57 19 -49 -54 -58 21 56 -65 0
15 16 17 -47 52 -18 -48 53 -57 -19 49 -54 -61 56 -63 -65 0
15 16 46 17 52 18 -48 -53 -57 -19 -49 54 -51 56 -63 65 0
15 16 46 -47 52 18 19 -49 -54 -58 -61 -21 -56 60 -63 -65 0
15 16 46 17 52 -18 -48 -53 -57 -49 54 58 61 21 -60 -63 -65 0
15 16 17 52 -18 48 53 -57 19 -49 -54 -58 21 -51 -60 -63 -65 0
15 16 46 17 52 -48 53 57 20 50 -62 21 60 63 66 0
15 16 46 17 52 18 48 -57 50 55 59 51 -60 63 66 0
15 16 46 -47 52 18 53 20 -50 -55 -59 -62 -21 -51 56 60 0
15 16 46 -47 52 18 -48 -53 -57 -20 -50 55 59 21 56 -63 0
15 16 46 17 52 -48 53 20 -50 -55 -59 -62 -21 -51 56 63 0
15 16 17 -47 52 18 48 -20 50 -55 -62 21 51 -56 -60 -66 0
15 16 46 -47 52 18 -48 -53 -57 -20 -55 59 -62 21 -63 -66 0
16 46 17 -47 52 -18 48 -53 20 -50 -55 -59 -62 21 -63 -66 0
15 16 46 17 -47 -18 -48 53 -57 -20 -55 59 -62 56 -63 -66 0
15 16 17 52 18 -53 -57 20 50 -59 62 -21 -51 -56 -63 66 0
16 46 17 -47 52 -48 53 -20 -50 55 -59 -62 21 -51 -56 -60 63 0
15 16 17 52 19 49 58 -50 55 59 -64 21 51 56 66 0
15 16 46 17 52 -49 54 58 20 59 64 21 51 -65 66 0
15 16 46 17 52 54 58 50 55 64 21 51 60 -65 -66 0
15 16 46 17 52 19 58 20 50 64 51 56 60 -65 -66 0
15 16 46 -47 52 19 54 20 -50 -55 -59 -64 -21 -51 56 60 0
15 16 46 -47 52 19 -49 -54 -58 -20 -50 55 59 21 56 -65 0
15 16 46 17 52 19 -49 -54 -58 -50 55 -64 -21 -51 56 66 0
15 16 46 -47 52 -19 -49 54 58 20 55 21 -51 -56 -60 -66 0
15 16 17 -47 52 19 -49 58 -20 -55 59 -64 21 51 -65 -66 0
15 16 46 17 52 -19 -49 54 20 -50 -55 -59 -51 56 65 -66 0
15 16 46 52 -49 -54 -58 -20 55 59 64 -21 -51 56 -65 66 0
15 16 46 17 52 -19 -49 54 -58 20 -55 -59 21 -60 -65 66 0
15 16 46 17 19 -49 -54 -58 -50 55 -64 -21 -56 -60 -65 66 0
16 46 17 52 -19 -49 -54 20 -59 64 -21 -51 56 -60 -65 -66 0
15 16 46 -47 52 19 -20 -55 59 -64 21 -51 -56 -60 -65 -66 0
15 16 46 17 -19 49 -54 58 20 -55 -59 -64 21 -51 -56 -60 -66 0
15 16 46 -47 52 19 -49 -54 -58 -20 -50 55 -59 56 -60 65 -66 0
15 16 46 -18 -53 -49 54 61 -20 -50 55 -62 64 56 -63 65 0
15 16 46 48 -19 54 -50 -55 -62 64 -21 51 -56 -63 -65 -66 0
15 -47 -57 -19 -49 -58 -61 20 50 -59 62 64 -21 51 60 -65 0
15 -47 -18 -48 -57 -19 49 58 -61 20 50 -59 62 -60 -63 66 0
15 17 -47 -19 -49 -58 -61 20 59 62 64 -21 51 -63 -65 -66 0
15 17 -47 -48 -57 -19 -58 -61 20 -50 59 62 64 51 -63 -65 66 0
15 17 -47 -18 -57 -49 -58 -61 20 -50 59 62 64 51 -63 -65 66 0
16 17 52 -18 53 -57 -19 54 61 55 64 -56 -60 -63 65 -66 0
16 17 52 53 -19 54 61 -20 55 -59 64 -56 -60 -63 65 -66 0
16 17 52 -18 53 -57 54 -20 55 62 64 -56 -60 -63 -65 66 0
16 17 52 57 -19 54 -55 -59 -62 64 -21 -56 60 -63 -65 -66 0
17 52 -18 -53 19 54 -58 61 20 -59 -62 64 -56 -60 -63 65 -66 0
22 23 31 24 32 33 46 -27 -42 48 53 36 43 54 61 0
22 23 31 24 32 33 46 -27 42 -48 53 36 43 54 61 0
22 23 31 24 32 33 46 35 42 53 -28 43 -49 54 61 0
22 23 31 24 32 33 46 35 42 53 28 43 -49 -54 61 0
22 23 31 24 32 33 46 35 42 53 28 -43 49 54 -61 0
22 23 31 24 32 33 46 35 42 53 28 43 49 -54 -61 0
22 23 31 24 32 -25 46 -27 42 53 36 43 49 54 61 0
22 23 31 24 32 33 -40 27 -35 -42 -48 -53 -28 36 -43 54 0
22 31 24 32 33 -40 46 -27 -35 -42 48 -53 36 43 -49 -54 0
22 23 31 24 32 33 -40 -27 35 -42 53 28 -36 -43 -49 -54 0
22 31 24 32 33 -40 46 35 42 -48 -53 -28 -36 -43 49 -54 0
22 23 31 32 -39 -25 33 -40 46 27 -35 -42 -48 28 36 -61 0
22 23 31 32 -39 -25 33 -40 46 -27 -35 48 -53 36 49 -61 0
22 23 31 32 -39 -25 33 -40 46 27 35 28 -36 -43 -49 -61 0
22 31 24 32 -39 33 -40 -27 35 -42 -48 -53 28 -36 -43 -49 54 0
22 31 24 32 -39 33 -40 27 -35 -42 -48 53 -28 36 -43 -49 -54 0
22 31 24 32 -25 33 -40 -27 35 -42 -48 -53 -28 -36 43 49 -54 0
22 31 24 32 -25 33 -40 -27 -35 42 48 -53 -28 36 -43 -49 -54 0
22 23 31 24 32 33 -40 46 -27 -35 -42 -48 53 28 -49 -54 -61 0
22 23 24 32 -39 33 -40 46 27 35 -53 -28 -36 -43 -49 54 -61 0
22 23 31 24 32 33 46 -27 42 -48 53 37 44 55 62 0
22 23 31 24 32 33 46 27 42 48 -53 37 44 55 -62 0
22 23 31 24 32 33 46 35 42 53 -29 44 -50 55 62 0
22 23 31 24 32 33 -40 27 -35 -42 -48 -53 -29 37 -44 55 0
22 31 24 32 33 -40 46 -27 -35 -42 48 -53 37 44 -50 -55 0
22 23 31 24 32 33 -40 -27 35 -42 53 29 -37 -44 -50 -55 0
22 31 24 32 33 -40 46 35 42 -48 -53 -29 -37 -44 50 -55 0
22 23 31 32 -39 -25 33 -40 46 27 -35 -42 -48 29 37 -62 0
22 23 31 32 -39 -25 33 -40 46 -27 -35 48 -53 37 50 -62 0
22 23 31 32 -39 -25 33 -40 46 27 35 29 -37 -44 -50 -62 0
22 23 31 32 -39 33 46 35 42 -48 -53 -29 -37 44 -55 -62 0
22 23 31 32 -39 -25 33 -40 46 35 48 -29 -37 50 -55 -62 0
22 23 31 32 -25 33 46 -27 35 -42 53 -37 -44 -50 55 -62 0
22 31 24 32 -25 46 -27 35 -42 -48 -53 -37 -44 -50 55 -62 0
22 31 24 32 -39 33 -40 -27 35 -42 -48 -53 29 -37 -44 -50 55 0
22 31 24 32 -39 33 -40 27 -35 -42 -48 53 -29 37 -44 -50 -55 0
22 31 24 32 -25 33 -40 -27 35 -42 -48 -53 -29 -37 44 50 -55 0
22 31 24 32 -25 33 -40 -27 -35 42 48 -53 -29 37 -44 -50 -55 0
22 23 24 -39 -25 33 -40 46 27 35 -42 -53 29 -37 -44 -50 -62 0
22 23 24 32 -39 33 -40 46 -27 -35 -42 -48 53 29 37 -55 -62 0
22 23 24 -39 -25 33 -40 46 27 -35 -42 -48 29 37 -44 -55 -62 0
23 31 24 32 -39 -25 -40 46 -27 -35 48 -53 37 -44 50 -55 -62 0
22 23 31 24 32 33 -40 46 27 -48 -53 -29 -37 -44 -50 55 -62 0
22 23 31 24 32 33 46 35 42 53 -30 45 -51 56 63 0
22 23 31 24 32 33 -40 -27 35 -42 53 30 -38 -45 -51 -56 0
22 23 31 32 -39 -25 33 -40 46 27 -35 -42 -48 30 38 -63 0
22 23 31 32 -39 -25 33 -40 46 -27 -35 48 -53 38 51 -63 0
22 23 31 32 -39 -25 33 -40 46 35 48 -30 -38 51 -56 -63 0
22 23 24 32 -39 33 -40 46 27 35 -53 -30 -38 -45 -51 56 -63 0
22 23 31 24 32 33 46 28 43 49 -54 37 44 55 -64 0
22 23 31 24 32 33 -40 28 -36 -43 -49 -54 -29 37 -44 55 0
22 31 24 32 33 -40 46 -28 -36 -43 49 -54 37 44 -50 -55 0
22 23 31 24 32 33 -40 -28 36 -43 54 29 -37 -44 -50 -55 0
22 31 24 32 33 -40 46 36 43 -49 -54 -29 -37 -44 50 -55 0
22 23 31 32 -39 -25 33 -40 46 28 -36 -43 -49 29 37 -64 0
22 23 31 32 -39 -25 33 -40 46 -28 -36 49 -54 37 50 -64 0
22 23 31 32 -39 -25 33 -40 46 28 36 29 -37 -44 -50 -64 0
22 23 31 32 -39 33 46 36 43 -49 -54 -29 -37 44 -55 -64 0
22 23 31 32 -25 33 46 -36 -43 -49 54 -29 37 -44 55 -64 0
22 23 31 32 -39 -25 33 -40 46 36 49 -29 -37 50 -55 -64 0
22 31 24 32 -39 33 -40 -28 36 -43 -49 -54 29 -37 -44 -50 55 0
22 31 24 32 -39 33 -40 28 -36 -43 -49 54 -29 37 -44 -50 -55 0
22 31 24 32 -25 33 -40 -28 36 -43 -49 -54 -29 -37 44 50 -55 0
22 31 24 32 -25 33 -40 -28 -36 43 49 -54 -29 37 -44 -50 -55 0
22 23 24 -39 -25 33 -40 46 28 36 -43 -54 29 -37 -44 -50 -64 0
22 23 31 24 -25 33 -40 46 28 -43 -49 -54 29 -37 -44 -50 -64 0
22 23 31 24 32 -25 -40 46 36 -43 49 -29 -37 44 -50 -55 -64 0
22 23 31 24 32 33 46 28 -43 49 54 38 45 56 -65 0
22 31 24 32 33 -40 46 -28 -36 -43 49 -54 38 45 -51 -56 0
22 23 31 32 -39 -25 33 -40 46 28 -36 -43 -49 30 38 -65 0
22 23 31 32 -39 -25 33 -40 46 -28 -36 49 -54 38 51 -65 0
22 23 31 32 -39 -25 33 -40 46 28 36 30 -38 -45 -51 -65 0
22 23 31 32 -39 -25 33 -40 46 36 49 -30 -38 51 -56 -65 0
22 31 24 32 -25 33 -40 -28 36 -43 -49 -54 -30 -38 45 51 -56 0
22 23 31 24 32 -25 -40 46 -28 -36 43 -49 -54 38 -45 51 -65 0
22 23 31 24 32 33 -40 29 -37 -44 -50 -55 -30 38 -45 56 0
22 23 31 32 -39 -25 33 -40 46 29 -37 -44 -50 30 38 -66 0
22 23 31 32 -39 -25 33 -40 46 -29 -37 50 -55 38 51 -66 0
22 23 31 32 -39 33 46 -29 -37 50 -55 -30 38 -45 51 -66 0
22 23 31 32 -39 -25 33 -40 46 37 50 -30 -38 51 -56 -66 0
22 23 24 32 -39 33 -29 -37 44 -55 -30 38 -45 -51 -56 -66 0
22 31 24 32 -39 33 -40 29 -37 -44 -50 55 -30 38 -45 -51 -56 0
22 23 24 32 -39 33 -40 46 -29 -37 -44 -50 55 30 38 -56 -66 0
22 23 31 24 -25 33 -40 46 29 -37 -44 -50 30 -45 -51 -56 -66 0
22 23 31 24 32 26 -47 -27 35 -42 -48 -57 28 -36 -49 58 0
22 23 31 24 26 41 -47 -27 -35 42 -48 -57 28 -43 49 -58 0
22 23 31 24 32 26 -47 27 -35 -48 57 -28 36 -43 -49 -58 0
22 23 31 24 26 41 -47 27 -42 48 -57 -28 -36 43 -49 -58 0
22 23 24 32 -39 26 -34 41 -47 -27 35 -42 -48 28 36 -61 0
22 23 24 32 -39 26 -34 41 -47 -27 -35 42 -57 28 43 -61 0
22 23 24 32 -39 26 -34 41 -47 27 42 -28 -36 43 -58 -61 0
22 23 31 24 -39 26 -47 27 -35 -42 -48 -57 -28 36 -43 -49 58 0
22 23 31 24 -39 26 -47 -27 35 -42 -48 57 28 -36 -43 -49 -58 0
22 23 31 24 26 -34 -47 27 -35 -42 -48 -57 -28 -36 43 49 -58 0
22 23 31 24 26 -34 -47 -27 -35 42 48 -57 28 -36 -43 -49 -58 0
22 31 32 -39 26 -34 41 -47 -27 35 -42 -48 28 36 -49 -58 -61 0
22 23 31 24 32 26 -47 -27 35 -42 -48 -57 29 -37 -50 59 0
22 23 31 24 26 41 -47 -27 -35 42 -48 -57 29 -44 50 -59 0
22 23 31 24 32 26 -47 27 -35 -48 57 -29 37 -44 -50 -59 0
22 23 31 24 26 41 -47 27 -42 48 -57 -29 -37 44 -50 -59 0
22 23 24 32 -39 26 -34 41 -47 -27 -35 42 -57 29 44 -62 0
22 23 24 32 -39 26 -34 41 -47 27 35 -29 37 -44 -50 -62 0
22 23 24 32 -39 26 -34 41 -47 27 42 -29 -37 44 -59 -62 0
22 23 24 32 -39 26 41 -27 -35 48 -57 29 -44 50 -59 -62 0
22 23 31 24 -39 26 -47 27 -35 -42 -48 -57 -29 37 -44 -50 59 0
22 23 31 24 -39 26 -47 -27 35 -42 -48 57 29 -37 -44 -50 -59 0
22 23 31 24 26 -34 -47 27 -35 -42 -48 -57 -29 -37 44 50 -59 0
22 23 31 24 26 -34 -47 -27 -35 42 48 -57 29 -37 -44 -50 -59 0
22 31 32 -39 26 -34 41 -47 -27 35 -42 -48 29 37 -50 -59 -62 0
22 23 31 24 32 26 41 -47 35 42 57 38 51 -60 63 0
22 23 31 24 32 26 41 27 48 57 38 -45 51 -60 63 0
22 23 31 24 32 26 -47 -27 35 -42 -48 -57 30 -38 -51 60 0
22 23 24 32 -39 26 -34 41 -47 -27 35 -42 -48 30 38 -63 0
22 23 24 32 -39 26 -34 41 -47 -27 -35 42 -57 30 45 -63 0
22 23 31 24 26 -34 -47 27 -35 -42 -48 -57 -30 -38 45 51 -60 0
22 31 32 -39 26 -34 41 -47 27 35 -48 -57 -30 38 -45 -51 -63 0
22 31 24 32 26 -34 41 -47 35 -42 -48 -57 -30 38 -45 -51 -63 0
22 23 31 32 -39 26 41 -47 -27 -35 -42 -48 57 30 38 -60 -63 0
22 23 31 24 32 26 41 -47 43 -49 58 37 44 50 64 0
22 23 31 24 32 26 -47 -28 36 -43 -49 -58 29 -37 -50 59 0
22 23 31 24 26 41 -47 -28 -36 43 -49 -58 29 -44 50 -59 0
22 23 31 24 32 26 -47 28 -36 -49 58 -29 37 -44 -50 -59 0
22 23 31 24 26 41 -47 28 -43 49 -58 -29 -37 44 -50 -59 0
22 23 24 32 -39 26 -34 41 -47 -28 36 -43 -49 29 37 -64 0
22 23 24 32 -39 26 -34 41 -47 28 36 -29 37 -44 -50 -64 0
22 23 24 32 -39 26 -34 41 -47 28 43 -29 -37 44 -59 -64 0
22 23 31 24 -39 26 -47 28 -36 -43 -49 -58 -29 37 -44 -50 59 0
22 23 31 24 -39 26 -47 -28 36 -43 -49 58 29 -37 -44 -50 -59 0
22 23 31 24 26 -34 -47 28 -36 -43 -49 -58 -29 -37 44 50 -59 0
22 23 31 24 26 -34 -47 -28 -36 43 49 -58 29 -37 -44 -50 -59 0
22 23 31 24 32 -34 41 -47 28 43 -49 -29 -37 -44 50 -59 -64 0
22 23 31 24 32 26 41 36 43 -49 58 30 51 60 -65 0
22 23 31 24 32 26 41 36 43 49 -58 30 51 60 -65 0
22 23 31 24 32 26 41 28 49 58 38 -45 51 -60 65 0
22 23 24 32 -39 26 -34 41 -47 -28 36 -43 -49 30 38 -65 0
22 23 24 32 -39 26 -34 41 -47 -28 -36 43 -58 30 45 -65 0
22 23 24 32 -39 26 -34 41 -47 28 36 -30 38 -45 -51 -65 0
22 23 24 32 -39 26 -34 41 -47 28 43 -30 -38 45 -60 -65 0
23 31 24 26 -34 41 -28 36 -43 -49 30 -38 -45 -51 -60 -65 0
22 23 31 32 -39 26 41 -47 -28 -36 -43 -49 58 30 38 -60 -65 0
22 23 31 24 32 26 -47 -28 -36 -43 -49 -58 38 -45 51 -60 65 0
22 23 31 24 32 26 41 37 44 -50 59 30 51 60 -66 0
22 23 31 24 32 26 41 -47 37 44 59 38 51 -60 66 0
22 23 31 24 32 26 -47 -29 37 -44 -50 -59 30 -38 -51 60 0
22 23 24 32 -39 26 -34 41 -47 -29 -37 44 -59 30 45 -66 0
22 23 24 32 -39 26 -34 41 -47 29 37 -30 38 -45 -51 -66 0
22 31 32 -39 26 -34 41 -47 -29 37 -44 -50 30 38 -51 -60 -66 0
22 23 31 24 32 35 42 -48 43 -49 61 29 44 50 64 0
22 23 31 24 32 35 -42 48 28 49 61 29 44 -62 64 0
22 23 31 24 32 35 48 28 -43 49 61 37 44 62 -64 0
22 23 31 24 32 35 42 -48 28 43 61 29 50 -62 64 0
22 23 31 24 32 27 42 36 43 49 -61 29 50 62 -64 0
22 23 31 24 32 27 42 48 36 43 -61 37 50 -62 64 0
22 23 31 24 32 35 42 28 -43 49 -61 37 50 62 64 0
22 23 31 24 32 35 42 36 49 61 29 -44 50 -62 64 0
22 23 31 24 32 35 42 36 49 61 29 44 50 -62 -64 0
22 23 31 24 32 27 48 28 43 61 37 -44 50 62 -64 0
22 23 31 24 32 27 42 28 49 61 37 -44 50 -62 64 0
22 31 24 32 -39 27 35 28 -36 -43 -49 -61 -29 37 44 -50 0
22 23 31 24 32 27 -42 -28 36 -43 -49 -61 29 -37 -44 62 0
22 23 31 24 32 27 -42 28 -36 -43 61 -29 37 -44 -50 -62 0
22 23 31 24 32 35 -48 -28 36 -49 61 29 -37 -44 -50 -62 0
22 23 31 24 32 27 -35 -42 -48 36 -49 -61 -29 37 -50 64 0
22 23 31 24 32 27 -35 -42 28 -43 61 -29 37 -44 -50 -64 0
22 23 31 24 32 -27 35 -42 36 -43 61 29 -37 -44 -50 -64 0
22 23 31 24 32 -27 35 -48 36 -49 61 29 -37 -44 -50 -64 0
22 23 31 24 32 -27 35 -42 -48 28 -36 -43 29 -44 -62 64 0
22 23 31 24 32 27 -35 -42 -28 36 -43 -49 29 -44 62 -64 0
22 23 31 24 32 27 -35 -42 -48 -28 36 -43 37 -44 -62 64 0
22 31 24 32 -27 35 -42 -48 -28 -36 -43 -61 29 -50 -62 64 0
22 23 31 24 32 27 -35 -42 -48 -28 36 -49 37 -50 -62 64 0
22 23 31 24 32 -27 35 -48 28 -36 -43 -49 37 -50 62 -64 0
22 31 24 32 -27 35 -42 -48 -28 49 -61 -37 -44 -50 -62 64 0
22 23 31 32 27 -42 -28 -36 -49 61 -29 37 -44 -50 -62 -64 0
22 23 31 24 -39 27 -48 -28 36 -43 -49 61 29 -37 -44 -50 -62 0
22 23 31 32 -39 35 -48 -28 36 -43 -49 -61 29 -37 -44 -50 62 0
22 31 24 32 -39 -27 35 -42 -48 36 -43 -61 29 -37 -44 -50 64 0
22 23 31 32 -27 35 -42 -48 36 -43 -49 -61 29 -37 -44 50 -64 0
22 23 31 32 27 -35 -42 48 36 -43 -49 -61 -29 37 -44 -50 -64 0
22 23 31 24 -39 27 -35 -42 -48 -28 36 -43 -49 29 -50 -62 64 0
22 23 31 24 -39 -27 35 -42 -48 28 -36 -43 -49 29 -50 62 -64 0
22 23 31 24 -39 -35 -42 28 36 49 61 -29 -37 44 -50 -62 -64 0
22 23 31 24 32 35 -48 28 -43 49 -61 -29 -37 -44 -50 -62 64 0
22 23 31 24 32 27 42 48 36 43 -61 38 51 -63 65 0
22 23 31 24 -39 -27 35 -42 -48 28 -36 -43 49 30 38 -63 0
22 31 24 32 -39 27 -35 -42 -48 -28 36 43 -49 30 38 -63 0
22 23 31 32 -39 27 -35 -42 -48 -28 -36 49 -61 30 -63 -65 0
22 23 31 24 -39 -27 35 -42 -48 -28 -36 49 -61 38 -63 -65 0
22 23 31 24 -27 -42 -48 28 -36 -43 -49 -61 -38 45 63 -65 0
22 23 31 24 32 35 42 -48 44 -50 62 30 45 51 66 0
22 23 31 24 32 27 -42 48 -44 50 62 38 45 51 66 0
22 23 31 24 32 35 48 29 44 -50 -62 38 45 63 66 0
22 23 31 24 32 27 -42 48 37 44 50 -45 51 63 66 0
22 23 31 24 32 35 42 37 50 62 30 45 -51 63 -66 0
22 23 31 24 32 35 -48 29 -37 -44 -50 -62 -30 38 -51 63 0
22 23 31 24 32 -27 35 -42 -48 29 -44 -62 30 -38 -45 66 0
22 23 31 24 32 27 -35 -42 -48 37 -50 -62 -30 38 -51 66 0
22 23 31 32 -39 27 -35 -42 -48 -29 -37 50 -62 30 -63 -66 0
22 23 31 24 -39 -27 -35 48 -29 37 -44 -50 -62 38 -63 -66 0
22 23 31 24 27 -35 48 -29 -44 -50 62 30 -38 -45 63 -66 0
22 23 31 24 32 -27 35 -48 29 -37 -44 -50 38 -51 63 -66 0
22 23 31 24 -39 35 -29 -37 50 -62 -30 38 -45 -51 -63 -66 0
22 23 31 32 -39 -27 -35 -42 -48 29 44 -50 62 30 38 -63 -66 0
22 23 31 24 32 36 43 49 29 50 -64 30 45 -65 66 0
22 23 31 24 32 28 43 37 44 50 -64 30 51 65 -66 0
22 23 31 24 32 28 -43 49 37 44 -64 38 51 65 66 0
22 23 31 24 32 36 43 37 50 64 30 45 51 -65 -66 0
22 23 31 24 32 28 -43 -29 37 -44 -50 -64 30 -38 -45 65 0
22 23 31 24 32 36 -49 29 -37 -44 -50 -64 -30 38 -51 65 0
22 23 24 32 28 -36 -43 -49 37 -50 -64 -30 -38 -45 -65 66 0
22 23 24 32 36 -49 29 -37 -44 -50 -64 -30 -38 -45 65 -66 0
22 23 24 32 -39 28 -36 -43 -49 29 -44 -64 -30 38 -45 -51 66 0
22 23 31 24 32 36 43 -49 -29 -37 -44 -50 64 30 -45 -65 -66 0
22 23 31 24 32 28 43 -49 -29 -37 -44 -50 64 38 -45 -65 -66 0
22 23 31 24 -28 -36 43 49 29 -37 -44 -50 30 -38 -51 -65 -66 0
22 23 31 32 28 -36 -43 49 -29 37 -44 -50 38 -45 -51 -65 -66 0
22 31 24 32 -39 -28 -49 29 37 44 64 -30 -38 -45 51 -65 -66 0
23 31 -25 33 -40 26 -34 41 -27 35 42 -53 -57 36 43 -54 0
22 23 31 -25 -40 -34 41 52 42 -53 57 -28 -36 43 -54 58 0
22 23 -25 33 -40 26 -34 41 -27 -35 42 -53 -57 43 -54 -61 0
22 23 -25 33 -40 26 -34 41 27 35 -42 -53 -57 29 37 -55 0
22 23 31 -25 -40 -34 41 52 -27 -35 42 -53 57 44 -55 59 0
22 23 31 -25 -40 26 -34 52 27 -53 57 29 -37 -44 -55 59 0
22 23 31 -25 -40 -34 41 52 42 -53 57 -29 -37 44 -55 59 0
22 23 31 -25 -40 -34 41 52 27 -35 -42 -53 -57 29 -55 -62 0
22 23 -25 33 -40 26 -34 41 -27 -35 42 -53 -57 44 -55 -62 0
23 31 -25 33 -40 26 -34 41 27 -53 29 -37 -44 -55 -59 -62 0
22 23 -25 33 -40 26 41 52 27 -35 -42 -57 29 -37 -44 -55 -62 0
23 31 -25 33 -40 26 41 52 -27 -35 42 -57 -29 -37 44 -55 -62 0
22 23 31 -25 33 -40 26 52 27 -35 -42 -57 29 -44 -55 -59 -62 0
22 23 31 -25 33 -40 -34 41 36 43 -54 -58 44 -55 59 -64 0
23 31 -25 33 -40 26 -34 41 28 -54 29 -37 -44 -55 -59 -64 0
23 31 -25 33 -40 26 41 52 -28 -36 43 -58 -29 -37 44 -55 -64 0
22 23 -25 33 -40 26 41 52 28 -36 -43 -54 29 -37 -44 -59 -64 0
22 23 31 -25 33 -40 41 52 -28 43 -54 -58 -29 -37 44 -59 -64 0
22 23 31 -25 33 -40 26 52 28 -36 -43 -58 29 -44 -55 -59 -64 0
22 23 31 -25 -40 26 -34 52 28 -36 -43 -54 58 30 -56 60 0
23 31 -25 33 -40 26 -34 41 28 -36 -43 -54 -58 30 -56 -65 0
23 31 -25 -40 26 -34 41 52 36 43 -54 -38 45 -56 60 -65 0
23 31 -25 33 -40 26 -34 41 28 -54 30 -38 -45 -56 -60 -65 0
22 23 31 33 -40 26 -28 -36 54 -58 30 -38 -45 -56 -60 -65 0
22 23 31 -25 33 -40 41 52 -28 -36 43 -58 -30 45 -56 -60 -65 0
23 31 -25 33 -40 26 -34 41 29 -37 -44 -55 -59 30 -56 -66 0
22 23 -25 33 -40 26 -34 41 -29 -37 44 -55 -59 45 -56 -66 0
23 31 -25 33 -40 26 -34 41 29 -55 30 -38 -45 -56 -60 -66 0
22 23 -25 33 -40 26 41 52 29 -37 -44 -59 30 -38 -45 -56 -66 0
22 23 -25 33 -40 26 41 52 29 -37 -44 -55 30 -38 -45 -60 -66 0
22 23 31 -25 33 35 42 -28 -36 43 -54 -61 -29 37 -44 55 0
22 23 31 -25 33 -40 -27 -35 -53 28 -43 -54 61 37 -55 -62 0
22 23 31 -25 33 -40 -35 -42 -53 36 -54 -61 -29 44 -55 62 0
22 23 31 -25 33 -40 -27 42 -53 -36 -43 -54 61 37 -55 -64 0
22 23 31 -25 33 -40 35 -53 -36 -43 -54 -61 -29 44 -55 64 0
22 23 31 33 -40 -27 35 -42 53 28 36 29 -37 -44 -55 -64 0
22 31 33 -40 35 -42 53 28 36 43 -61 -29 -37 -44 -55 64 0
22 31 -25 33 -40 35 42 -53 43 -54 -61 -29 -37 -44 -55 64 0
22 23 31 -25 33 -40 -35 -42 -53 -28 36 54 61 37 -62 64 0
22 23 31 -25 33 -40 35 -42 53 -28 -36 -54 61 37 62 -64 0
22 23 31 -25 33 -40 -27 -35 -53 36 -43 54 61 37 -62 64 0
22 23 31 -25 33 -40 35 -42 53 28 36 29 -37 -44 -62 -64 0
22 23 31 -25 33 -40 35 -53 28 -43 -54 -29 -37 -55 -62 64 0
22 23 31 -25 33 -40 -35 -42 -53 36 -61 -29 37 55 62 64 0
22 23 31 -25 33 -40 35 -36 -43 -54 -61 -29 37 55 62 64 0
22 23 31 -25 33 -40 -27 42 -53 36 -54 -37 -44 -55 62 -64 0
22 23 31 -25 33 -40 35 -53 -28 43 -54 -37 -44 -55 -62 64 0
22 23 31 -25 33 -40 35 -28 36 54 61 -37 -44 -55 -62 64 0
22 23 31 -25 33 42 -28 -36 43 -54 -61 -37 -44 55 -62 -64 0
22 31 -25 33 -40 35 -42 -53 28 36 -43 -54 29 -37 -44 62 -64 0
22 23 31 -25 33 -40 -27 -35 42 -28 36 -54 -61 37 -55 62 -64 0
23 31 -25 -40 27 35 -42 53 -28 -36 -54 61 37 -44 -55 62 -64 0
22 23 31 -25 33 35 42 -28 -36 43 -54 -61 -30 38 -45 56 0
23 31 -25 33 -40 35 -53 28 -36 -43 -54 -61 -30 38 45 -56 0
22 23 31 -25 33 -27 -35 42 -53 -28 36 -43 54 38 45 -63 0
23 31 -25 33 -40 27 -35 -42 -53 -28 36 43 -54 38 -56 -63 0
22 23 31 -25 33 -40 -27 -35 -53 28 -43 -54 61 38 -56 -63 0
22 23 31 -25 33 -40 -35 -42 -53 -28 43 -54 61 38 -56 -63 0
22 23 31 -25 -40 27 -35 -42 -53 28 -36 54 61 30 -56 65 0
23 31 -25 33 -40 -27 35 42 -53 28 -36 -43 -54 38 -56 -65 0
22 23 31 -25 33 -40 -27 42 -53 -36 -43 -54 61 38 -56 -65 0
22 23 31 -25 33 -40 35 -53 -28 -36 -54 -61 30 -45 -56 65 0
22 23 31 -25 33 -40 35 -53 -36 -43 -54 -61 -30 45 -56 65 0
22 23 31 -25 33 -40 -35 -42 -53 -28 36 54 61 38 -63 65 0
22 23 31 -25 33 -40 35 -42 53 -28 -36 -54 61 38 63 -65 0
22 23 31 -25 33 -40 -27 -35 -53 36 -43 54 61 38 -63 65 0
22 23 31 -25 33 -35 -42 53 -28 -36 43 -54 -61 45 -63 -65 0
22 23 31 -25 33 35 53 28 -36 -43 -61 30 38 -56 -63 -65 0
22 31 -25 33 -40 35 42 -53 28 -36 -43 61 -30 38 -45 -56 -65 0
22 31 -25 33 -27 -35 -42 -53 28 -43 -54 61 30 38 45 -63 65 0
22 23 31 -25 -40 -27 35 28 -36 -43 -54 -61 38 45 56 63 -65 0
22 23 31 33 -40 27 -35 -42 -53 -29 37 -44 55 30 38 -63 0
22 23 31 -25 33 -40 -27 -35 -53 29 -44 -55 62 38 -56 -63 0
23 31 -25 33 -40 35 -53 -29 37 44 -55 30 -38 -45 -56 -63 0
23 31 -25 33 -40 -27 35 42 -53 29 -37 -44 -55 38 -56 -66 0
23 31 -25 33 -40 -27 35 42 -53 37 -55 30 -38 -45 -56 -66 0
22 31 -25 33 27 35 -53 37 44 55 -62 -30 -38 -45 -56 66 0
22 23 31 -25 33 -40 -35 -42 -53 -29 37 55 62 38 -63 66 0
22 23 31 -25 33 -40 35 -42 53 -29 -37 -55 62 38 63 -66 0
22 23 31 -25 33 -40 -27 -35 -53 37 -44 55 62 38 -63 66 0
22 23 31 -25 33 -40 -27 35 53 -37 -44 -55 62 38 63 -66 0
22 23 31 -25 33 -27 -35 42 -53 -37 -44 55 -62 45 -63 -66 0
22 23 31 -25 33 -35 -42 53 -29 -37 44 -55 -62 45 -63 -66 0
22 23 31 -25 33 -40 35 -37 -44 -55 -62 -30 38 56 63 66 0
22 23 31 -25 33 27 -35 -42 -53 37 44 55 -62 -30 -45 -63 66 0
22 23 31 33 -40 27 35 53 -29 -37 44 -55 -62 -30 -45 63 -66 0
22 23 31 33 -40 -27 -35 42 -53 -29 -44 -62 30 38 56 -63 66 0
22 23 31 33 -40 27 35 53 -29 -44 62 -30 -38 45 -56 -63 -66 0
22 23 31 -25 33 -40 28 -36 -43 29 -44 -55 64 30 38 -56 0
22 23 31 -25 33 -40 -28 43 -54 -29 -37 44 64 38 45 -56 0
22 23 31 -25 33 -40 -28 -36 -54 29 -44 -55 64 38 -56 -65 0
22 23 31 33 -40 28 36 -29 37 -44 55 30 -38 -45 -56 -65 0
22 23 31 -25 33 -40 -28 36 54 -29 -37 44 -64 38 45 -66 0
22 23 31 -25 33 -40 -28 43 -54 -37 -44 -55 64 38 -56 -66 0
22 23 31 -25 33 -28 36 -43 54 37 44 -30 -38 45 -56 -66 0
22 23 31 -25 33 -40 -36 -43 -54 -29 37 55 64 38 -65 66 0
22 23 31 -25 33 -40 36 -43 54 -29 -37 -55 64 38 65 -66 0
22 23 31 -25 33 -40 -28 -36 -54 37 -44 55 64 38 -65 66 0
22 23 31 -25 33 -40 -28 36 54 -37 -44 -55 64 38 65 -66 0
22 23 31 -25 33 -40 36 -43 54 29 37 30 -38 -45 -65 -66 0
22 31 -25 33 -40 -28 -36 -43 -54 29 37 -55 30 -56 65 -66 0
22 23 31 -25 33 -40 -28 43 -54 37 -55 -38 -45 -56 65 -66 0
22 23 31 -25 33 -40 36 -54 -29 44 -55 -38 -45 -56 -65 66 0
23 -25 33 -40 -28 -36 43 -54 -37 44 -64 38 45 -56 -65 66 0
22 23 31 -25 33 43 -29 -37 44 -55 -64 -38 -45 56 -65 -66 0
22 23 31 33 -40 28 36 54 -29 -37 44 -55 -64 -30 -45 65 -66 0
22 31 -25 33 -40 -28 36 -54 -29 37 44 -55 -30 -38 45 65 -66 0
22 23 31 -25 33 -40 36 -54 37 -44 -55 -64 30 -38 -45 65 -66 0
22 23 31 26 41 35 -57 36 43 -58 61 29 37 59 62 0
22 23 31 26 41 -35 57 36 43 58 61 29 -37 59 62 0
22 23 31 26 41 -35 57 28 -36 58 61 37 44 59 62 0
22 23 31 26 41 35 42 57 -36 58 61 29 -37 59 64 0
22 23 31 26 41 -35 42 57 28 58 61 29 37 -62 64 0
22 23 31 26 41 27 57 36 43 -58 -61 29 37 62 64 0
22 23 31 26 41 27 57 -36 43 58 61 29 37 62 -64 0
22 23 31 26 41 42 57 28 36 58 -61 37 44 62 -64 0
22 23 31 26 41 27 35 -36 43 58 -61 29 59 62 64 0
22 23 31 26 41 35 42 57 28 -36 58 -37 59 62 64 0
22 23 31 26 41 42 57 36 43 61 29 37 -59 -62 64 0
22 23 31 26 41 42 57 36 43 61 29 -37 59 62 -64 0
22 23 31 26 41 42 57 36 43 61 29 37 59 -62 -64 0
22 23 31 26 41 35 42 43 58 61 29 37 -59 62 -64 0
22 23 31 26 41 27 35 -57 36 43 61 44 59 -62 64 0
22 23 31 26 41 27 35 57 36 43 -61 44 59 -62 64 0
22 23 31 26 41 35 42 28 36 -58 61 44 59 62 -64 0
22 23 31 26 41 27 35 28 58 61 -37 44 59 -62 64 0
22 23 31 26 41 27 -35 -28 -36 43 -58 -61 29 -37 -44 62 0
22 23 31 26 41 42 -57 28 -36 -43 -58 -61 -29 44 -59 62 0
22 23 31 26 41 27 -35 28 -36 -43 61 -29 -37 44 -59 -62 0
22 23 31 26 41 -27 -35 42 -57 28 -36 -61 29 -37 -44 64 0
22 23 31 26 41 27 -35 -42 28 -36 61 -29 -37 44 -59 -64 0
22 23 31 26 41 -27 -35 42 -36 43 61 29 -37 -44 -59 -64 0
22 23 31 26 41 -27 42 -57 43 -58 61 29 -37 -44 -59 -64 0
22 23 31 26 41 27 -42 -57 -28 -36 43 -58 29 -59 62 -64 0
22 23 31 26 41 27 -35 -42 -57 -28 43 -58 44 -59 -62 64 0
22 23 31 26 41 -27 42 -57 28 -36 -43 -58 44 -59 62 -64 0
23 31 26 41 -27 42 -57 -28 36 43 61 -37 -44 -59 -62 64 0
22 23 31 26 -27 -35 -57 36 -43 61 29 -37 -44 -59 -62 -64 0
23 31 26 -34 41 -35 42 -28 -36 43 -58 -61 29 -37 -44 -59 62 0
22 23 26 41 27 -35 -42 -28 36 -43 58 -61 29 -37 -44 -59 -62 0
22 23 31 26 -34 27 -57 28 -36 -43 -58 -61 -29 -37 44 -59 62 0
22 23 31 -34 41 42 -57 -28 -36 43 -58 -61 29 -37 -44 -59 62 0
22 23 31 26 -34 -27 -35 42 -57 28 -58 61 29 -37 -44 -59 -64 0
22 23 31 -34 41 27 -35 -42 -57 43 -58 61 -29 -37 44 -59 -64 0
23 31 26 -34 41 -27 -35 42 -57 28 -36 -43 -58 -37 44 -62 64 0
22 23 31 26 -34 27 -35 -42 -57 -28 -36 43 -58 29 -59 -62 64 0
22 23 31 26 41 27 -57 -28 -36 -43 -58 -61 -37 44 59 -62 64 0
22 31 -34 41 -27 -35 -57 -28 -43 -58 -61 29 -37 44 59 62 64 0
22 23 31 26 41 27 35 -36 43 58 -61 30 60 63 65 0
22 23 31 26 41 27 -35 57 36 43 -61 45 60 63 65 0
22 23 31 26 -34 -27 -35 42 -57 28 -36 -43 58 30 45 -63 0
23 31 26 27 -35 -42 -57 -28 36 -43 -58 -61 30 -38 45 -63 0
22 23 26 -34 41 27 35 -42 -57 -28 -36 43 -58 30 45 -65 0
23 31 26 -34 41 -27 35 42 -57 28 -36 -43 -58 30 45 -65 0
22 23 31 26 41 -27 42 -57 43 -58 61 30 -38 -45 -60 -65 0
23 31 26 -34 41 -27 35 -42 28 -36 -43 -58 -61 30 -63 -65 0
22 23 31 41 -35 -42 -57 -28 -36 43 -58 -61 -30 38 63 -65 0
22 23 31 41 -35 -42 -57 -28 36 61 -30 -38 45 -60 -63 -65 0
22 23 31 41 -27 42 -57 -28 36 -43 58 -61 -30 -38 45 -60 -63 0
22 23 31 -34 41 -27 -35 -42 -57 28 36 -58 61 30 45 -63 -65 0
22 23 31 26 -34 35 42 -57 -28 -36 -43 -58 61 30 45 -63 -65 0
22 23 31 26 41 27 35 -57 -28 -36 -43 -58 61 -38 45 -63 -65 0
23 31 26 41 35 42 57 29 -37 59 62 30 38 45 -66 0
22 23 31 26 41 -35 42 57 29 59 62 30 38 -63 66 0
22 23 31 26 41 27 35 -57 44 59 -62 38 45 63 66 0
22 23 31 26 41 -35 42 57 29 37 -62 30 60 63 66 0
22 23 31 26 -34 -27 -35 42 -57 29 -37 -44 59 30 45 -63 0
23 31 26 -34 41 27 -35 -42 -57 -29 37 44 -59 30 45 -63 0
23 31 26 -34 41 27 -35 -42 -57 -29 37 -44 -62 30 -63 -66 0
23 31 26 -34 41 -27 35 -42 29 -37 -44 -59 -62 30 -63 -66 0
22 23 31 26 -34 -27 -35 42 -57 -29 -44 59 -62 45 -63 -66 0
22 23 26 41 27 -35 -42 -57 44 -59 -62 -30 -38 -45 -63 66 0
22 23 26 -34 41 -27 -42 57 29 37 -62 30 -38 60 -63 -66 0
22 23 26 -34 27 35 -57 -29 -37 -44 -59 30 45 60 -63 66 0
22 23 26 -34 41 -27 -35 -42 -57 -37 44 59 62 30 45 -63 -66 0
23 31 26 41 27 -35 -57 -29 -37 -44 -59 62 30 -38 45 63 -66 0
22 23 31 26 41 36 43 -58 29 59 -64 30 38 65 66 0
22 23 31 26 41 -36 43 58 29 59 64 30 38 -65 66 0
22 23 31 26 41 36 43 -58 29 37 59 38 -60 65 66 0
22 23 31 26 41 43 58 37 44 64 30 -38 60 65 -66 0
22 23 31 26 41 36 43 44 59 64 30 38 60 -65 -66 0
22 23 31 26 41 36 43 29 -37 59 -64 45 60 65 66 0
22 23 31 26 -34 28 -36 -43 58 -29 -37 44 -59 30 45 -66 0
22 23 31 26 41 -28 -36 43 -58 29 -37 -64 30 -38 -45 66 0
22 23 31 26 41 -28 43 -58 44 -59 64 30 -38 -45 -60 -66 0
22 23 26 -34 41 43 -29 -37 44 -59 -64 -30 38 -45 -65 -66 0
22 23 31 26 -34 43 -29 -37 44 -59 -64 -30 -45 60 -65 -66 0
23 31 26 -34 41 28 -29 37 -44 -64 30 -38 -45 -60 -65 -66 0
22 23 31 26 -34 43 -29 -44 59 -64 -30 -38 45 -60 -65 -66 0
22 23 31 26 41 36 43 -58 29 -37 -64 -30 -38 -45 -60 65 -66 0
22 23 31 -35 -42 -28 43 61 -29 37 -44 -62 -64 38 -63 -66 0
22 23 31 -35 -42 -28 -36 43 -61 -29 44 62 64 45 -63 66 0
22 31 27 -35 -42 -28 36 43 -29 -37 44 -62 -64 45 -63 -66 0
22 23 31 27 -35 -42 -28 -43 -61 29 -37 62 64 30 -65 66 0
22 23 31 -27 -35 42 -36 -43 -61 -29 44 62 64 45 -65 66 0
22 23 31 -27 -35 42 -28 43 61 -37 -44 -62 64 45 65 -66 0
22 23 31 35 -36 -43 -61 -29 37 -44 -62 -64 -30 45 65 -66 0
22 23 31 35 -28 36 61 -29 37 -44 64 -38 -45 -63 65 -66 0
22 23 31 35 -28 36 -43 -29 37 62 64 -38 -45 -63 -65 66 0
22 32 -25 33 46 26 -34 -47 27 35 -48 -53 -57 28 36 -58 0
22 24 32 -25 46 -34 -47 52 35 -57 -28 36 -49 -54 -58 -61 0
22 32 -25 33 46 26 -34 -47 48 -57 -28 -36 49 -54 -58 -61 0
22 24 32 46 26 -34 -47 52 -35 48 -53 -57 -28 -36 49 -54 -61 0
22 32 33 46 26 -34 -47 52 -27 35 -48 -53 -28 36 -49 -58 -61 0
24 32 -25 33 46 26 -34 -47 27 -35 48 -53 -57 29 50 -59 0
22 32 -25 33 46 26 -34 -47 27 35 -57 29 37 -50 -55 -59 0
24 32 -25 33 46 26 -34 -47 -27 35 -48 -53 -57 37 -59 -62 0
22 32 -25 33 46 26 -34 -47 -27 -35 48 -53 -57 50 -59 -62 0
22 32 -25 33 46 26 -34 -47 48 -57 -29 -37 50 -55 -59 -62 0
24 32 33 46 26 -34 -47 52 -27 -35 48 -57 -29 -37 50 -55 -62 0
22 24 32 46 26 -34 -47 52 -35 48 -53 -57 -29 -37 50 -55 -62 0
22 32 33 46 26 -34 -47 52 -27 35 -48 -53 -29 37 -50 -59 -62 0
22 24 32 -25 33 -34 -47 52 -27 35 -48 53 -57 38 56 -60 0
22 24 32 -25 33 -34 -47 52 35 53 -57 -30 38 -51 56 -60 0
24 32 -25 33 46 26 -34 -47 -27 35 -48 -53 -57 38 -60 -63 0
22 24 32 46 26 -34 -47 52 -35 48 -53 -57 -30 -38 51 -56 -63 0
22 24 32 -25 46 -34 -47 52 -28 -36 49 54 -58 50 55 -59 0
24 32 -25 33 46 26 -34 -47 28 49 -58 29 -37 50 -55 -59 0
22 24 32 -25 33 -34 -47 52 36 54 -58 -29 37 -50 55 -59 0
22 24 32 -25 46 -34 -47 52 49 54 -58 -29 -37 50 55 -59 0
22 32 -25 33 46 26 -34 -47 -28 -36 49 -54 -58 50 -59 -64 0
24 32 -25 33 46 26 -34 -47 36 -58 -29 37 -50 -55 -59 -64 0
22 32 -25 33 46 26 -34 -47 49 -58 -29 -37 50 -55 -59 -64 0
22 24 32 46 26 -34 -47 52 -36 49 -54 -58 -29 -37 50 -55 -64 0
22 32 33 46 26 -34 -47 52 -28 36 -49 -54 -29 37 -50 -59 -64 0
22 24 32 46 26 -34 -47 52 -28 -36 49 -54 -37 50 -55 -59 -64 0
24 32 -25 33 46 26 -34 -47 -28 36 -49 -54 -58 38 -60 -65 0
22 32 -25 33 46 26 -34 -47 -28 -36 49 -54 -58 51 -60 -65 0
22 24 32 -25 46 26 -34 -47 28 49 -54 -58 51 56 -60 -65 0
22 32 33 46 26 -34 -47 52 -28 36 -49 -58 -30 38 -51 -56 -65 0
22 24 32 46 26 -34 -47 52 -36 49 -54 -58 -30 -38 51 -56 -65 0
24 32 33 46 26 -34 -47 52 -28 -36 49 -54 -30 -38 51 -60 -65 0
22 32 -25 33 46 26 -34 -47 -29 -37 50 -55 -59 51 -60 -66 0
24 32 -25 33 46 26 -34 -47 37 -59 -30 38 -51 -56 -60 -66 0
22 24 32 46 26 -34 -47 52 -37 50 -55 -59 -30 -38 51 -56 -66 0
22 24 32 33 46 -27 53 -28 49 54 61 29 37 55 62 0
22 24 32 33 46 27 -53 28 36 54 61 29 50 -55 62 0
22 24 32 33 46 27 48 -53 28 -54 61 29 37 55 64 0
22 24 32 33 46 -27 48 53 36 54 61 29 37 -62 64 0
22 24 32 33 46 27 35 -53 49 54 -61 29 50 62 64 0
22 24 32 33 46 -27 35 53 49 54 61 29 50 -62 64 0
22 24 32 33 46 27 48 -53 28 36 61 37 55 -62 64 0
22 24 32 33 46 27 35 -28 49 54 -61 37 55 62 64 0
22 24 32 33 46 27 35 28 49 -54 61 37 55 62 -64 0
22 24 32 33 46 48 53 28 49 61 29 37 -55 -62 64 0
22 24 32 33 46 27 48 49 54 61 29 37 -55 62 -64 0
22 24 32 33 46 27 35 -53 28 49 61 50 55 -62 64 0
22 24 32 33 46 27 35 53 28 49 -61 50 55 -62 64 0
22 24 32 33 46 27 48 28 36 -54 61 50 55 62 -64 0
22 24 32 33 46 35 53 28 36 61 -29 50 55 62 -64 0
22 24 32 33 46 27 35 36 54 61 -29 50 55 -62 64 0
22 24 32 33 46 27 35 36 54 61 29 50 -55 62 -64 0
22 24 32 -25 33 35 48 -28 -36 49 -54 -61 -29 37 -50 55 0
22 24 32 33 46 -27 35 -28 -36 49 -54 -61 -29 37 -50 62 0
22 24 32 33 46 48 -53 -36 49 -54 61 -29 37 -50 -55 -62 0
22 24 32 33 46 -35 48 -53 49 -54 61 -29 37 -50 -55 -64 0
22 24 32 -25 33 35 53 -36 -49 54 -61 -29 37 -50 55 -64 0
24 32 33 46 35 -53 -28 -36 49 -54 -61 -29 -37 -50 62 -64 0
24 32 33 46 -27 -35 48 -53 -28 -49 -54 -61 -37 55 -62 64 0
24 32 33 46 -27 -35 -48 -28 -36 49 -54 -61 37 -55 62 -64 0
22 24 32 33 46 -35 48 -53 -28 36 -49 -54 50 -55 62 -64 0
24 32 -25 33 46 27 -35 -48 36 -61 -29 37 -50 -55 -62 -64 0
22 24 32 46 -35 -48 -53 -28 36 61 -29 -37 50 -55 -62 -64 0
22 32 -25 33 46 -27 35 -28 -36 49 -54 61 -29 37 -50 -55 -62 0
24 32 -25 33 46 -27 48 -28 -36 49 -54 -61 -29 37 -50 -55 62 0
22 24 32 -25 33 35 -53 -28 36 -49 -54 -61 -29 -37 50 -55 62 0
22 32 -25 33 46 -27 -35 48 -53 -28 36 61 -29 37 -50 -55 -64 0
24 32 -25 33 46 -27 35 -48 -53 -28 49 61 -29 -37 50 -55 -64 0
22 24 32 -25 33 -27 -35 48 -53 36 -54 61 -29 37 -50 -55 -64 0
22 24 32 -25 46 -27 -35 48 -53 49 -54 -61 -29 37 -50 -55 64 0
24 32 -25 33 46 -27 -35 48 -53 -28 36 -49 -54 -29 50 -62 64 0
24 32 -25 33 46 -27 35 -48 -53 -28 -36 49 -54 -29 50 62 -64 0
22 32 33 46 27 -35 -48 53 -28 36 -49 -54 -29 37 -50 -62 -64 0
22 24 32 -25 33 -27 35 -48 -53 -28 -36 49 -54 37 -55 -62 64 0
22 24 32 -25 33 -27 -35 48 -53 -28 36 -49 -54 37 -55 62 -64 0
22 24 32 33 46 -27 -35 -48 -53 49 -54 -61 -29 37 55 62 -64 0
22 24 32 33 46 -27 -35 -48 -53 -28 36 54 61 50 -55 -62 -64 0
22 24 -25 33 46 27 -35 -48 28 -36 -54 -61 29 50 -55 -62 -64 0
22 24 32 33 46 -27 35 53 49 -54 -61 -29 -37 -50 -55 62 -64 0
22 24 32 33 46 35 53 28 36 61 -30 51 56 63 -65 0
22 24 32 33 46 -27 35 -28 -36 49 -54 -61 -30 38 -51 63 0
22 24 32 -25 46 -35 -48 53 -28 36 -49 -54 -61 38 -63 -65 0
22 24 32 -25 33 35 48 -29 37 -50 55 -30 -38 51 -56 -63 0
24 32 -25 33 46 27 -35 48 -53 -29 37 -50 -55 38 51 -66 0
22 24 32 -25 33 35 53 -37 -50 55 -62 -30 38 -51 56 -66 0
24 32 -25 33 46 -27 35 -48 -53 29 -37 -50 -62 38 -63 -66 0
22 24 32 -25 46 -35 -48 53 -29 37 -50 -55 -62 38 -63 -66 0
22 32 -25 33 46 -27 -35 48 -53 29 -37 -50 -62 51 -63 -66 0
22 32 -25 33 46 27 -35 -48 -29 -37 50 -55 -62 51 -63 -66 0
24 32 33 46 27 -35 48 -37 50 -55 62 -30 -51 -56 63 -66 0
24 32 -25 33 46 -27 -35 -48 -53 -29 37 55 62 38 51 -63 -66 0
24 32 -25 33 46 -28 36 -49 -54 29 -37 50 -55 38 51 -65 0
24 32 -25 33 46 28 -36 49 -54 -29 37 -50 -55 38 51 -66 0
22 24 32 33 46 -28 -36 49 -54 -29 37 -64 -30 38 -51 66 0
22 24 32 33 46 -28 36 -49 -29 37 64 -30 -38 51 -56 -66 0
22 24 32 -25 46 28 49 -54 50 55 -64 30 -38 -51 -65 -66 0
24 32 33 46 -36 49 -54 -29 -50 -55 -64 30 -38 51 65 66 0
22 24 32 33 46 -28 36 -49 -54 -37 50 -55 51 -56 -65 66 0
22 24 32 33 46 -36 49 -54 -29 37 -50 -55 51 -56 65 -66 0
22 24 32 -25 46 36 -29 37 -50 -55 -64 -38 -51 56 -65 -66 0
22 -25 33 28 36 49 -29 -37 -50 -55 64 -38 -51 56 -65 -66 0
24 32 -25 33 46 36 29 -37 -50 -64 -30 38 -51 -56 -65 -66 0
22 24 32 46 -28 36 -37 -50 -55 64 -30 -38 51 -56 -65 -66 0
24 32 -25 33 46 -28 49 -29 37 -50 -55 64 -30 -38 51 -56 -65 0
22 24 32 26 -34 -47 -35 48 -57 28 49 -58 -29 -37 50 62 0
22 24 32 26 -34 -47 -27 -48 -57 -36 49 -58 61 29 -59 -62 0
22 24 32 26 -34 -47 -27 35 -48 28 36 -58 37 -50 -59 62 0
22 24 32 26 -34 -47 -27 -48 -57 28 -58 -61 -37 50 -59 62 0
24 32 26 -34 -47 27 -57 28 -36 49 -58 -29 37 -50 -59 -62 0
22 24 32 26 -34 -47 -35 48 -57 -28 -49 -58 61 29 -59 -64 0
22 24 32 26 -34 -47 27 -57 -28 -49 -58 -61 -37 50 -59 64 0
22 24 32 26 -34 -47 -27 -48 -57 28 -36 58 61 29 -62 64 0
22 24 32 26 -34 -27 -35 48 -57 -28 -49 58 -61 50 -62 -64 0
22 24 32 26 -34 -47 27 -57 36 -49 -58 -29 -37 -59 -62 64 0
22 24 32 26 -34 -47 -27 -48 -57 28 -61 29 -37 59 62 64 0
22 24 32 26 -34 -47 27 -28 -49 -58 -61 29 -37 59 62 64 0
22 24 32 26 -34 -47 27 28 -49 58 61 -29 -37 -59 -62 64 0
22 24 32 26 -34 -47 -35 48 -57 28 -58 -29 -50 -59 62 -64 0
22 24 32 26 -34 -47 27 -57 -36 49 -58 -29 -50 -59 -62 64 0
22 24 32 26 -34 -47 27 -28 -36 -58 -61 29 -50 59 62 64 0
22 24 32 26 -34 -47 27 28 -36 58 61 -29 -50 -59 -62 64 0
22 32 26 -34 -47 -27 35 -48 36 49 58 -61 -29 37 -50 -59 -62 0
22 32 26 -34 -47 35 48 57 -28 36 -49 -61 -29 37 -50 -59 -64 0
22 24 32 26 -34 -27 35 -48 -57 28 49 58 -61 -37 -50 -62 64 0
24 32 26 -34 -47 -27 35 -48 -57 28 -36 -61 29 37 50 -62 64 0
22 24 32 26 -34 -27 35 -48 -57 -36 -49 -61 29 50 59 -62 64 0
22 24 32 26 -34 -35 -48 -28 36 -49 -58 -61 29 50 59 62 -64 0
22 24 32 -34 -47 27 48 57 28 -36 61 -29 37 -50 -59 -62 -64 0
22 24 32 -34 -47 27 -35 28 49 58 61 -29 37 -50 -59 -62 -64 0
22 24 32 26 -34 -35 -48 28 49 58 61 -29 37 -50 -59 -62 -64 0
22 24 32 26 -34 -47 -27 35 -48 36 -49 -58 61 30 38 -60 0
24 32 26 -34 -47 27 -57 -28 36 -49 -58 -61 30 -38 51 -60 0
22 24 32 26 -34 -47 -27 35 -48 28 36 -61 30 -51 60 -63 0
22 24 32 26 -34 -47 35 -48 -57 -28 -36 -58 61 30 -60 -65 0
22 24 32 26 -34 -47 -35 48 -57 -28 -49 -58 61 30 -60 -65 0
22 24 32 26 -34 -47 27 -57 -28 -49 -58 -61 -38 51 -60 65 0
22 24 32 26 -34 -47 -27 -48 -57 28 -36 58 61 30 -63 65 0
22 24 32 26 -34 -47 27 -48 57 -28 -36 -58 61 30 63 -65 0
22 24 32 26 -34 -47 27 -35 57 -28 -49 -58 61 30 63 -65 0
22 24 32 26 -34 -27 -35 48 -57 -28 -49 58 -61 51 -63 -65 0
22 24 26 -34 -47 27 35 -57 -28 -36 -49 -58 38 -60 -63 65 0
22 24 32 26 -34 -47 27 28 -49 58 61 -30 -38 -60 -63 65 0
22 24 32 26 -34 -47 27 -57 -36 49 -58 -30 -51 -60 -63 65 0
22 24 32 26 -34 -47 27 28 -36 58 61 -30 -51 -60 -63 65 0
22 24 -47 27 -35 48 -57 -28 -36 -49 -58 61 30 38 51 60 -65 0
22 24 32 26 -34 -27 35 -48 -57 -36 -49 -61 30 51 60 -63 65 0
22 24 32 26 -34 -47 -27 -35 -57 37 -50 -59 62 30 -60 -63 0
22 24 32 26 -34 -47 -27 -48 -57 -37 50 -59 62 30 -60 -63 0
22 24 32 26 -34 -47 -35 48 -57 -29 -50 -59 62 30 -60 -66 0
22 24 32 26 -34 -47 -27 -48 -57 29 -37 59 62 30 -63 66 0
22 24 32 26 -34 -47 27 -48 57 -29 -37 -59 62 30 63 -66 0
22 24 32 26 -34 -47 -27 -35 -57 29 -50 59 62 30 -63 66 0
22 24 32 26 -34 -27 -35 48 -57 -29 -50 59 -62 51 -63 -66 0
22 24 32 26 -34 -27 -48 57 -29 -37 50 -59 -62 51 -63 -66 0
22 24 32 26 -34 -47 27 29 -50 59 62 -30 -38 -60 -63 66 0
22 24 26 -34 27 35 -57 -29 -37 -50 -59 30 51 60 -63 66 0
22 24 32 26 -34 -27 -35 48 -57 50 -62 -30 -51 60 -63 -66 0
22 24 32 26 -34 -27 -48 57 50 -62 -30 -38 51 -60 -63 -66 0
22 24 32 26 -34 -27 35 -48 -57 29 50 59 -62 -38 -51 -63 66 0
22 24 26 -34 -27 -35 -48 -57 37 -50 -59 62 30 38 51 -63 66 0
22 24 32 26 -34 -47 -28 -36 -58 37 -50 -59 64 30 -60 -65 0
22 24 32 26 -34 -47 -28 -49 -58 -37 50 -59 64 30 -60 -65 0
22 24 26 -34 -47 49 -58 -29 -37 -50 -59 64 30 51 -60 -65 0
22 24 32 26 -34 28 -36 -49 58 -29 -37 50 -59 30 51 -66 0
22 24 32 26 -34 -47 -36 49 -58 -29 -50 -59 64 30 -60 -66 0
22 24 32 -34 -47 -28 36 -49 -58 -29 37 59 64 38 -60 66 0
22 24 32 26 -34 -47 28 -58 -29 -50 -59 -64 -38 51 -60 66 0
22 24 32 26 -34 -47 -28 -49 -58 29 -37 59 64 30 -65 66 0
22 24 32 26 -34 -47 28 -49 58 -29 -37 -59 64 30 65 -66 0
22 24 32 26 -34 -47 -28 -36 -58 29 -50 59 64 30 -65 66 0
22 24 32 26 -34 -47 28 -36 58 -29 -50 -59 64 30 65 -66 0
22 24 32 26 -34 -47 28 -29 -50 -59 -64 30 -38 60 65 66 0
22 24 32 26 -47 36 -29 37 -50 -59 -64 -30 -38 60 -65 -66 0
22 24 32 26 -34 -47 -28 -36 -58 29 -64 30 -51 60 65 66 0
22 24 32 26 -34 -47 28 29 -37 59 64 -30 -51 -60 -65 66 0
22 24 32 26 -34 49 -29 -37 50 -59 -64 -30 -51 60 -65 -66 0
22 24 32 26 -34 49 -29 -50 59 -64 -30 -38 51 -60 -65 -66 0
22 32 26 -34 -47 -28 36 -49 -29 37 -50 -59 -64 38 51 60 -65 0
22 32 26 -34 -47 -28 36 -49 -58 37 50 59 -30 38 -51 -65 -66 0
22 24 32 26 -34 -47 28 -49 -58 29 -59 -64 -30 38 -51 -65 66 0
22 24 32 26 -34 -47 28 -58 29 -50 -59 -64 -30 38 -51 65 -66 0
22 24 32 26 -34 -28 36 -49 -58 -37 -50 -64 30 51 60 -65 66 0
22 24 32 26 -34 -47 28 -58 -29 37 -50 64 30 -51 -60 -65 -66 0
22 24 32 35 -28 36 -49 -61 -37 -50 -62 -64 -30 51 -65 66 0
22 24 32 27 -35 -48 28 29 -37 62 64 -30 -51 -63 -65 66 0
22 32 -27 35 -48 -28 -36 49 -61 29 37 64 -30 38 -51 -63 -66 0
22 -25 33 26 -34 -27 -35 -53 -57 28 -54 58 61 -55 -62 64 0
-25 26 -34 52 -35 -53 57 28 36 -54 58 61 37 -55 -62 64 0
22 26 -34 -27 -35 -53 -57 28 54 58 61 -29 37 -55 -62 -64 0
-25 33 26 -34 52 -27 -28 -36 -54 -58 -61 -29 37 55 62 64 0
22 -25 33 26 -34 35 53 -57 -28 -36 -54 -58 61 -59 62 -64 0
-25 33 26 -34 52 -35 -28 -36 -54 -58 -61 29 -37 59 62 64 0
22 -25 33 -34 52 -57 -28 -36 -54 -58 -61 29 37 -59 62 64 0
22 -25 33 -34 52 -27 -35 -53 -57 -28 -61 -29 55 59 62 64 0
22 26 -34 -27 -35 -53 -57 -28 36 -54 -61 29 55 59 62 -64 0
22 -25 26 -34 27 35 53 -57 54 -58 61 29 -55 -59 62 -64 0
22 -25 33 26 -34 -53 -28 -36 -54 -58 -61 29 -55 59 62 64 0
22 -25 33 26 -34 -57 -28 -36 -54 -58 -61 37 55 -59 62 64 0
22 -25 33 -34 52 -27 53 57 -28 61 -29 -37 -55 -59 62 -64 0
22 -25 26 -34 52 -35 53 57 -36 61 -29 -37 -55 -59 62 -64 0
22 -25 26 -34 52 27 35 -53 -54 61 -29 -37 -55 -59 62 -64 0
-25 33 26 -34 52 -27 -28 36 54 61 -29 -37 -55 -59 -62 64 0
22 -25 26 -34 52 -53 28 36 -54 61 -29 -37 -55 -59 -62 64 0
22 -25 33 26 -34 35 53 -57 -58 61 -29 -37 -55 -59 62 -64 0
-25 33 26 -34 52 -35 28 -36 58 61 -29 -37 -55 -59 -62 64 0
22 -25 33 -34 52 -57 28 36 -58 61 -29 -37 -55 -59 -62 64 0
22 -25 33 26 -34 -53 28 -54 58 61 -29 -37 -55 -59 -62 64 0
22 -25 33 26 -34 -57 36 54 -58 61 -29 -37 -55 -59 -62 64 0
22 -25 33 -34 52 -27 53 -57 28 54 -58 -61 -29 37 55 -59 -62 0
22 33 26 -34 -27 -53 -57 28 -36 54 58 61 -37 -55 -59 -62 64 0
22 33 26 -34 -35 -53 -57 -28 -54 -58 -61 29 -37 55 59 62 64 0
22 -25 33 -34 52 -27 -35 -53 -57 -28 54 58 61 -30 -63 65 0
-25 33 26 -34 52 -27 -35 -53 -57 28 -36 58 61 -38 -63 65 0
-25 33 26 -34 52 27 -35 57 -28 -36 -54 -58 61 -38 63 -65 0
22 -25 26 -34 52 -27 -35 -53 -57 28 36 -54 61 -56 -63 65 0
22 -25 26 -34 52 27 35 -53 -28 -36 -54 -58 61 -56 63 -65 0
22 -25 33 26 -34 27 -53 57 -28 -36 -54 -58 61 -56 63 -65 0
22 -25 33 -34 52 -27 -35 -53 -57 28 36 -58 61 -60 -63 65 0
22 -25 33 -34 52 27 35 -57 -28 -36 -54 -58 61 -60 63 -65 0
-25 33 26 -34 52 -35 -28 -36 -54 -58 -61 30 -38 60 63 65 0
-25 33 26 -34 52 27 -35 57 -36 61 -30 -38 -56 -60 63 -65 0
-25 33 26 -34 52 -35 28 -36 58 61 -30 -38 -56 -60 -63 65 0
22 -25 33 26 -34 -53 28 -54 58 61 -30 -38 -56 -60 -63 65 0
22 -25 26 -34 52 -35 -36 54 58 61 -30 -38 -56 -60 -63 65 0
-25 33 26 -34 52 27 -35 53 -28 -36 54 -58 -30 -38 56 63 -65 0
22 33 -34 52 -27 -53 -57 28 -36 54 58 61 -30 -38 -60 -63 65 0
22 33 26 -34 27 -35 53 57 -36 -54 -58 61 -30 -56 -60 63 -65 0
22 26 -34 52 -27 -35 -53 28 36 54 -58 61 -38 -56 -60 -63 65 0
-25 33 26 -34 52 -27 -35 -53 -57 -29 37 55 62 -30 -63 66 0
-25 33 26 -34 52 -27 -35 -53 -57 29 -37 59 62 -38 -63 66 0
-25 33 26 -34 52 27 -35 57 -29 -37 -55 -59 62 -38 63 -66 0
22 -25 26 -34 52 -35 53 57 -29 -37 -55 -59 62 -38 63 -66 0
22 -25 26 -34 52 -27 -35 -53 -57 29 37 -55 62 -56 -63 66 0
22 -25 33 26 -34 -27 -35 -53 -57 29 -55 59 62 -56 -63 66 0
22 -25 33 26 -34 27 -53 57 -29 -37 -55 -59 62 -56 63 -66 0
22 -25 33 -34 52 -27 -35 -53 -57 29 37 -59 62 -60 -63 66 0
22 -25 33 26 -34 -27 -35 -53 -57 37 55 -59 62 -60 -63 66 0
22 -25 33 -34 52 27 35 -57 -29 -37 -55 -59 62 -60 63 -66 0
22 -25 33 26 -34 35 53 -57 -29 -37 -55 -59 62 -60 63 -66 0
-25 33 26 -34 52 -27 -29 37 55 62 -30 -38 -56 -60 -63 66 0
-25 33 26 -34 52 -35 29 -37 59 62 -30 -38 -56 -60 -63 66 0
22 -25 33 26 -34 -53 29 -55 59 62 -30 -38 -56 -60 -63 66 0
22 -25 33 -34 52 -27 35 -57 -29 37 -55 -59 -62 -30 38 60 63 0
22 33 26 -34 -35 -53 -57 29 -37 55 59 62 -30 -56 -60 -63 66 0
22 26 -34 52 27 35 53 -57 -29 -37 -55 62 -38 -56 -60 63 -66 0
-25 33 26 -34 52 -28 36 54 -29 -37 -55 -59 64 -30 65 -66 0
22 -25 33 -34 52 -28 54 58 -29 -37 -55 -59 64 -30 65 -66 0
-25 33 26 -34 52 -28 -36 -54 -58 29 -37 59 64 -38 -65 66 0
22 -25 26 -34 52 -28 -36 -54 -58 -37 55 59 64 -38 -65 66 0
-25 33 26 -34 52 28 -36 58 -29 -37 -55 -59 64 -38 65 -66 0
22 -25 33 26 -34 -28 -36 -54 -58 29 -55 59 64 -56 -65 66 0
22 -25 26 -34 52 28 36 -54 -29 -37 -55 -59 64 -56 65 -66 0
22 -25 33 26 -34 28 -54 58 -29 -37 -55 -59 64 -56 65 -66 0
22 -25 33 -34 52 -28 -36 -54 -58 29 37 -59 64 -60 -65 66 0
22 -25 33 26 -34 -28 -36 -54 -58 37 55 -59 64 -60 -65 66 0
22 -25 33 -34 52 28 36 -58 -29 -37 -55 -59 64 -60 65 -66 0
22 -25 33 26 -34 36 54 -58 -29 -37 -55 -59 64 -60 65 -66 0
-25 33 26 -34 52 -28 36 54 -29 64 -30 -38 -56 -60 65 -66 0
22 33 26 -34 -36 -54 -58 29 -37 55 59 64 -30 -56 -60 -65 66 0
22 -25 26 52 -28 36 54 58 -29 -37 -55 64 -38 -56 -60 65 -66 0
-25 33 27 -35 53 -28 36 54 -29 -37 -55 -62 64 -30 65 -66 0
22 -25 33 -35 53 28 36 -61 -29 -37 -55 -62 64 -63 65 -66 0
22 -25 33 27 -35 36 54 -61 -29 -37 -55 -62 64 -63 65 -66 0
22 -25 33 -35 53 -28 -36 -54 -61 -29 -64 -30 56 63 65 66 0
-25 33 -27 28 -36 54 -29 37 55 62 -30 -38 -56 -63 -65 66 0
22 -25 33 -35 53 -28 36 -54 -61 -29 37 62 -30 38 -63 -65 66 0
22 -25 33 -27 -35 -53 28 -54 61 37 -62 -64 30 38 -63 65 66 0
22 -25 33 -27 -35 28 36 -54 61 -29 -55 -62 64 56 -63 65 -66 0
22 -25 33 -27 -53 -28 -36 -61 29 37 -55 62 64 56 -63 -65 66 0
22 -25 33 -27 35 -28 36 -54 -61 -29 37 62 -38 56 -63 -65 66 0
-34 -27 -35 -57 -28 -36 -61 -29 -59 -62 30 -38 -60 65 -66 0
22 26 -34 -27 -35 -57 28 58 61 -29 37 -62 -64 -63 65 -66 0
22 26 -34 -27 35 28 58 -61 -29 -37 -59 -62 64 -63 65 -66 0
26 -34 -35 28 -36 58 61 -29 37 59 -30 -38 -60 -63 65 -66 0
22 26 -34 28 58 61 -29 37 -62 -64 -30 -38 -60 -63 65 -66 0
22 26 -27 -35 -57 28 -36 58 61 -59 -62 -64 30 38 60 -63 66 0
22 -34 -27 -35 -57 28 36 58 61 -59 -62 64 30 -38 -60 -65 66 0
22 26 -34 27 36 -58 -61 -29 -37 -59 -62 64 30 38 63 65 -66 0
22 26 -34 -27 -35 28 36 -58 61 -37 -59 -62 64 60 -63 65 -66 0
22 26 -34 -27 -35 -36 -58 -61 29 37 -59 62 64 60 -63 -65 66 0
23 24 -39 -25 -40 26 41 -47 52 27 -53 57 28 -43 49 -54 0
23 24 -39 -25 -40 26 41 -47 52 -42 -48 53 57 28 -49 58 0
23 -39 -25 46 26 41 -47 52 -27 -42 -48 53 57 -49 54 58 0
23 24 -39 -25 -40 26 41 -47 52 27 -48 57 -43 -49 54 58 0
23 -39 -25 46 26 41 -47 52 -27 42 -48 -53 -57 43 -49 -61 0
23 24 -25 -40 26 41 -47 52 27 -48 -53 57 28 49 -54 -61 0
23 -39 -25 46 26 41 -47 52 42 -48 -28 43 -49 -54 -58 -61 0
23 24 -25 -40 46 26 41 -47 42 -53 -28 43 -49 -54 -58 -61 0
23 24 -39 -25 -40 26 -47 52 27 -42 -48 -53 -57 28 43 -49 54 0
23 24 -39 -25 -40 26 -47 52 27 -42 -48 -53 57 28 -43 -49 54 0
24 -39 -25 -40 26 41 -47 52 -27 -42 -48 -53 57 43 49 -54 58 0
24 -39 -25 -40 26 41 -47 52 27 -42 -48 -53 57 -43 49 -54 58 0
23 24 -39 -25 -40 26 -47 52 27 42 -48 53 28 -43 -49 -54 -58 0
24 -39 -25 -40 26 41 -47 52 42 48 -53 57 -28 -43 -49 -54 58 0
23 24 -39 -25 -40 26 41 -47 52 27 -42 -48 -53 28 -49 54 -61 0
23 24 -39 -25 -40 26 41 -47 52 27 -48 53 28 -43 -49 -54 -61 0
24 -39 -40 46 26 41 -47 52 27 -42 -48 57 -28 -43 -54 58 -61 0
23 24 -39 46 26 41 -47 52 -27 -42 -53 57 -43 -49 -54 58 -61 0
23 24 -39 -25 -40 26 41 -47 52 48 -53 57 -43 -49 -54 58 -61 0
23 24 -39 -25 -40 26 41 -47 52 27 -53 57 29 -44 50 -55 0
23 24 -39 -25 -40 26 41 -47 52 -42 -48 53 57 29 -50 59 0
23 24 -39 -25 -40 26 41 -47 52 27 -42 48 -53 29 -55 59 0
23 24 -39 -25 -40 26 41 -47 52 27 -48 57 -44 -50 55 59 0
23 -39 -25 46 26 41 -47 52 -27 42 -48 -53 -57 44 -50 -62 0
23 24 -25 -40 46 26 41 -47 42 -53 -29 44 -50 -55 -59 -62 0
23 24 -39 -25 -40 26 -47 52 27 -42 -48 -53 -57 29 44 -50 55 0
24 -39 -25 -40 26 41 -47 52 -27 -42 -48 -53 57 44 50 -55 59 0
23 24 -39 -25 -40 26 -47 52 27 -42 -48 53 29 -44 -50 -55 59 0
23 24 -39 -25 -40 26 -47 52 27 42 -48 53 29 -44 -50 -55 -59 0
24 -39 -25 -40 26 41 -47 52 -42 48 -53 57 29 -44 -50 -55 59 0
24 -39 -25 -40 26 41 -47 52 42 48 -53 57 -29 -44 -50 -55 59 0
23 24 -39 -25 -40 26 41 -47 52 27 -42 -48 -53 29 -50 55 -62 0
23 24 -25 -40 46 26 41 52 27 -42 -48 -53 29 -44 -50 -59 -62 0
23 24 -39 -25 -40 46 26 52 27 -42 -48 -57 29 -44 -55 59 -62 0
24 -39 -40 46 26 41 -47 52 27 -42 -48 57 -29 -44 -55 59 -62 0
23 24 -39 -25 -40 26 41 -47 52 27 -53 57 30 -45 51 -56 0
23 24 -39 -25 -40 26 41 -47 52 -42 -48 53 57 30 -51 60 0
23 24 -25 -40 46 26 41 -47 27 48 -53 30 -45 51 -56 -60 0
23 -39 -25 46 26 41 -47 52 -48 53 57 -30 -45 -51 56 60 0
24 -39 -40 46 26 41 -47 52 -27 -42 -53 57 30 -45 -51 60 -63 0
23 24 -39 46 26 41 -47 52 -42 -48 -53 57 -30 -45 -56 60 -63 0
23 24 -39 -25 -40 26 41 -47 52 -42 -48 -53 57 51 -56 60 -63 0
23 24 -39 -25 -40 26 41 -47 52 48 -53 57 -45 -51 -56 60 -63 0
23 24 -39 -25 -40 26 41 -47 52 28 -54 58 29 -44 50 -55 0
23 24 -39 -25 -40 26 41 -47 52 -43 -49 54 58 29 -50 59 0
23 24 -39 -25 -40 26 41 -47 52 28 -43 49 -54 29 -55 59 0
23 24 -39 -25 -40 26 41 -47 52 28 -49 58 -44 -50 55 59 0
23 24 -40 26 41 52 28 -43 -49 -54 -58 -29 -50 55 -59 -64 0
23 24 -25 -40 46 26 41 -47 43 -54 -29 44 -50 -55 -59 -64 0
23 24 -39 -25 -40 26 -47 52 28 -43 -49 -54 -58 29 44 -50 55 0
23 24 -39 -25 -40 26 -47 52 28 -43 -49 -54 58 29 -44 -50 55 0
24 -39 -25 -40 26 41 -47 52 -28 -43 -49 -54 58 44 50 -55 59 0
24 -39 -25 -40 26 41 -47 52 28 -43 -49 -54 58 -44 50 -55 59 0
23 24 -39 -25 -40 26 -47 52 28 -43 -49 54 29 -44 -50 -55 59 0
23 24 -39 -25 -40 26 -47 52 28 43 -49 54 29 -44 -50 -55 -59 0
24 -39 -25 -40 26 41 -47 52 43 49 -54 58 -29 -44 -50 -55 59 0
23 24 -39 -25 -40 26 41 -47 52 28 -43 -49 -54 29 -50 55 -64 0
23 24 -39 -25 -40 26 41 -47 52 28 -49 54 29 -44 -50 -55 -64 0
23 24 -39 -25 -40 46 26 52 28 -43 -54 58 29 -44 -50 -59 -64 0
24 -39 -40 46 26 41 -47 52 -28 -43 -54 58 29 -44 -50 59 -64 0
23 24 -39 -25 -40 26 41 -47 52 28 -54 58 30 -45 51 -56 0
23 24 -39 -25 -40 26 41 -47 52 28 -43 49 -54 30 -56 60 0
23 -39 -25 46 26 41 -47 52 -28 -43 -49 54 58 -51 56 60 0
23 24 -25 -40 46 26 41 -47 -28 43 -49 -54 -58 45 -56 -65 0
23 24 -25 -40 26 41 -47 52 28 -49 -54 58 30 51 -56 -65 0
23 -39 -25 46 26 41 -47 52 43 -49 -30 45 -51 -56 -60 -65 0
24 -39 -25 -40 26 41 -47 52 43 49 -54 58 -30 -45 -51 -56 60 0
23 24 -39 -25 -40 26 41 -47 52 28 -43 -49 -54 30 -51 56 -65 0
23 24 -39 -25 -40 26 41 -47 52 -43 -49 -54 58 51 -56 60 -65 0
23 24 -39 -25 -40 26 41 -47 52 49 -54 58 -45 -51 -56 60 -65 0
23 24 -39 -25 -40 26 41 -47 52 29 -44 50 -55 30 -56 60 0
23 24 -25 -40 46 26 41 -47 -29 44 -50 -55 -59 45 -56 -66 0
24 -25 -40 46 26 -47 -29 -44 -50 -55 -59 30 45 -56 60 66 0
23 24 -39 -25 26 41 -47 52 29 -50 -55 59 -51 56 60 -66 0
24 -39 -25 26 -47 52 -29 -44 -50 -55 -59 45 -51 56 60 66 0
23 24 -25 -40 46 26 41 -47 44 -55 -30 45 -51 -56 -60 -66 0
23 24 -39 -25 -40 26 41 -47 52 29 -44 -50 -55 30 -51 56 -66 0
23 24 -39 -25 -40 26 41 -47 52 29 -50 55 30 -45 -51 -56 -66 0
24 -39 -40 46 26 41 -47 52 29 -44 -50 59 -30 -45 -56 60 -66 0
23 24 -39 -25 -40 26 41 -47 52 -44 -50 -55 59 51 -56 60 -66 0
23 24 -39 -25 -40 26 41 -47 52 50 -55 59 -45 -51 -56 60 -66 0
24 -39 -25 -40 -27 -42 -48 -28 -43 -54 -61 29 -44 -50 -55 0
24 -39 -25 -40 -27 48 -53 -43 -49 -54 -61 -29 -44 -50 -55 0
24 -39 -25 -40 -27 -42 -53 28 -43 -49 -54 -29 -44 -50 -62 0
23 -39 -25 -40 -27 -48 -53 -43 -49 -54 -61 -29 44 -50 -62 0
24 -39 -25 -40 -27 -42 -48 28 -43 -49 -54 -29 -44 -55 -62 0
24 -39 -25 -40 -27 -48 -53 -28 -43 49 -54 -44 -50 -55 -62 0
-39 -25 -40 -27 -48 -28 -43 -49 -54 -61 -29 44 -50 55 -62 0
24 -39 -25 -40 27 -42 -48 -53 -28 -43 -54 -29 -44 -50 -64 0
24 -39 -25 -40 27 -42 -48 -53 -28 -43 -49 -29 -44 -55 -64 0
24 -39 -25 -40 -27 -42 48 -53 -43 -49 -54 -29 -50 -55 -64 0
24 -39 -25 -40 46 -27 -42 -53 -28 -49 -61 -44 -50 -62 -64 0
23 24 -39 -40 46 -27 -42 -48 53 28 -43 49 -54 29 -44 -62 0
23 24 -40 -27 -42 53 28 43 49 54 61 29 -44 -50 -55 -64 0
24 -39 -25 46 -27 42 48 53 -28 43 61 -29 -44 50 62 -64 0
23 24 -39 -25 27 42 -48 53 28 -49 -54 61 -50 55 62 -64 0
24 -39 -25 -40 46 -27 -42 48 -53 -28 43 49 -54 -29 44 50 62 0
23 24 -39 -25 -40 27 -42 -48 53 28 -49 54 29 -44 -50 -55 64 0
23 24 -39 -25 -40 46 27 53 28 -43 -54 61 29 -44 -50 -62 -64 0
23 24 -39 -25 -40 46 27 -42 -48 28 -43 -54 -61 29 55 -62 64 0
24 -39 -40 46 27 42 -48 53 28 -43 -49 61 -29 -44 -55 62 -64 0
23 24 -39 -25 -40 46 27 -42 -48 28 54 -61 29 -44 -55 -62 64 0
23 24 -25 -40 -27 42 48 53 -43 -49 -54 61 -29 50 -55 62 -64 0
23 24 -39 -25 -40 27 42 -48 53 49 -54 61 -44 -50 -55 62 -64 0
24 -39 -25 -40 -27 48 -53 -28 -43 -49 -54 -45 -51 -56 -63 0
24 -39 -25 46 -27 -42 -53 -28 -43 -49 -61 -45 -51 -56 -63 0
23 24 -39 -40 46 27 -42 -28 -43 -49 54 -61 30 -45 51 -56 0
23 24 -25 -40 46 48 -53 -28 43 -49 -54 -61 30 -45 51 -56 0
23 24 -39 -40 46 27 -42 48 -53 -28 -43 -49 54 30 -45 -65 0
23 24 -39 27 42 53 -28 -43 -49 -54 61 -30 51 -56 -63 -65 0
23 24 -39 -25 -40 46 -27 48 -53 -43 49 -54 -61 45 51 -63 65 0
23 24 -39 -40 46 27 48 53 -28 -43 -49 54 -61 30 -56 63 -65 0
-39 -25 -40 27 -42 -48 53 -29 -50 -62 -30 -45 -51 -56 -66 0
23 -39 -25 -40 46 27 -42 48 -53 -29 50 -55 62 -45 51 -56 0
23 24 -39 -40 46 -27 -42 -48 53 29 -44 50 -55 30 -45 -63 0
23 24 -25 -40 46 48 -53 29 -44 50 -55 -30 45 -51 -56 -63 0
23 24 -39 -40 27 -42 53 29 -44 -55 62 -30 -45 -51 56 -63 0
23 24 -39 -27 -42 -48 -53 29 44 55 62 -30 51 -56 -63 -66 0
23 24 -39 27 42 53 -29 -44 -50 -55 62 -30 51 -56 -63 -66 0
23 24 -25 -40 46 27 -42 53 29 -44 50 -55 30 -45 -51 -63 -66 0
24 -39 -25 -40 28 -43 -49 -54 -29 -44 -50 -30 -45 -56 -66 0
23 -39 -25 -40 46 28 -43 -49 29 -44 50 -55 64 30 -45 -56 0
23 -39 -25 -40 46 28 -43 -49 29 -44 -55 30 -45 51 -56 65 0
24 -39 -25 46 -28 43 49 54 -29 -44 50 64 -30 45 65 -66 0
24 -39 -25 -40 46 -28 43 49 54 -29 -44 -55 64 30 -45 65 -66 0
24 -39 -40 46 28 43 -49 54 -29 -44 -55 64 30 -45 -51 65 -66 0
23 24 -39 -25 -40 46 28 54 29 -44 -50 -64 30 -45 -56 65 -66 0
24 -39 26 41 -47 -27 42 -48 -57 28 -49 -61 29 -44 -50 59 0
23 24 26 41 -47 27 42 -28 43 -49 -58 -61 29 -44 50 -59 0
24 -39 26 41 -47 27 -48 -28 43 -49 -58 -61 29 -44 -50 59 0
23 24 -39 26 41 -47 -27 -48 -57 -43 -49 58 61 29 -50 -62 0
23 24 -39 26 41 -47 -27 -48 -57 28 -49 -61 -44 -50 59 62 0
24 -39 26 41 -47 27 -48 28 -43 -49 58 -29 44 -50 -59 -62 0
23 24 -39 26 41 -47 -42 -48 57 -28 -49 -58 61 29 -50 -64 0
23 24 -39 26 -47 -27 -42 -48 -57 -49 58 61 29 -50 59 -64 0
23 24 -39 26 41 -47 27 -48 -28 -43 -49 -61 44 -50 -59 64 0
23 24 -39 26 41 -47 27 -48 -28 -49 -58 -61 -44 -50 59 64 0
24 -39 26 41 -47 27 -42 -48 57 28 -49 -29 44 -50 -59 -64 0
23 24 -39 26 41 -47 -27 -48 -57 28 -61 29 -44 50 62 64 0
23 24 26 41 -27 -48 -57 28 -43 -58 -61 29 -44 50 62 64 0
23 24 -39 26 41 -47 27 -28 -49 -58 -61 29 -44 50 62 64 0
23 24 -39 26 41 -47 27 28 49 -58 61 -29 -44 -50 -62 64 0
23 24 -39 26 41 -47 27 -48 -43 -49 58 -29 -50 -59 -62 64 0
23 24 -39 26 41 -47 -27 -42 -48 28 -61 29 50 -59 62 64 0
23 24 -39 26 41 -47 27 -28 -43 -49 -61 29 50 -59 62 64 0
23 24 -39 26 41 -47 27 28 -43 49 61 -29 -50 -59 -62 64 0
23 24 -39 41 -47 -27 42 -57 -28 43 -49 -58 -61 44 50 59 -62 0
23 24 -39 26 41 -42 -57 28 49 58 61 -29 44 -50 -59 -62 -64 0
24 -39 26 41 -47 -27 42 -48 -57 28 -43 -49 58 30 -51 -63 0
23 24 26 41 27 -48 57 -28 -43 -49 58 -61 30 51 -60 -63 0
23 24 -39 26 41 -47 -27 -48 -57 28 -49 -61 -45 -51 60 63 0
23 24 -39 26 41 -47 42 -48 -57 -28 -43 -49 61 30 -51 -65 0
23 -39 26 41 -47 -48 57 -28 -43 -49 58 -61 -30 45 51 -65 0
23 24 -39 26 41 -47 27 -48 -28 -49 -58 -61 -45 -51 60 65 0
23 24 -39 26 41 -47 -27 -48 -57 28 -43 49 61 30 -63 65 0
23 24 -39 26 41 -47 27 48 -57 -28 -43 -49 61 30 63 -65 0
23 24 -39 26 41 -47 -27 -42 -48 28 49 -58 61 30 -63 65 0
23 24 -39 26 41 -47 27 -42 48 -28 -49 -58 61 30 63 -65 0
23 24 -39 26 41 -47 27 -28 -49 -58 -61 30 -45 51 63 65 0
23 24 -39 26 41 -47 27 28 49 -58 61 -30 -45 -51 -63 65 0
23 24 -39 26 41 -27 -42 -48 57 -28 49 -58 -61 60 -63 -65 0
23 24 -39 26 41 -27 48 -57 -28 -43 -49 58 -61 60 -63 -65 0
23 24 -39 26 41 -47 27 28 -43 49 61 -30 -51 -60 -63 65 0
23 24 26 41 -47 -42 -57 -28 -43 -49 58 -61 30 45 51 63 -65 0
23 24 26 41 -47 27 42 48 -28 -43 -49 58 -61 -45 -60 63 -65 0
23 24 -39 26 41 -42 -57 -28 43 -49 -58 -61 30 51 60 63 -65 0
23 24 -39 26 41 -47 -27 -42 -48 44 -50 -59 62 30 -51 -63 0
23 24 -39 26 41 -47 -27 -48 -57 -44 -50 59 62 30 -51 -63 0
23 -39 26 41 -47 -27 -42 -48 57 -29 44 50 -62 -51 60 -63 0
24 26 41 -27 -42 -48 57 -29 -44 50 -59 -62 30 -51 60 -63 0
23 24 -39 41 -47 27 42 -48 -57 -29 -44 -50 59 30 -51 -66 0
24 -39 26 41 -47 27 -42 -48 57 -29 44 -50 -59 30 -51 -66 0
23 24 -39 26 41 -47 -27 -48 -57 29 -44 50 62 30 -63 66 0
23 24 -39 26 41 -47 27 48 -57 -29 -44 -50 62 30 63 -66 0
23 24 -39 26 41 -47 27 -42 48 -29 -50 -59 62 30 63 -66 0
23 24 26 -47 27 -48 57 -29 -44 -50 -59 30 45 51 -63 66 0
23 24 -39 26 41 -27 -42 -48 57 59 -62 -30 51 -60 -63 -66 0
23 24 26 41 -47 -27 42 -48 -57 29 -44 -50 -59 30 -51 63 -66 0
23 24 26 41 -47 -27 -42 -48 57 29 44 50 -62 -45 -60 -63 66 0
24 -39 26 41 -47 -28 43 -49 -58 29 -50 -64 30 -45 -51 60 0
23 24 -39 26 41 -47 -28 43 -58 29 50 -59 -64 30 45 -65 0
24 -39 26 41 -47 -28 43 -49 -58 29 -44 -50 59 30 -51 -65 0
23 24 -39 26 41 -47 -28 -43 -49 44 -50 -59 64 30 -51 -65 0
23 24 -39 26 -47 -49 58 -29 -44 -50 -59 64 30 -51 60 -65 0
23 24 -39 26 41 -47 -28 -49 -58 29 -50 -64 -45 -51 60 65 0
23 24 26 41 -47 28 -43 49 -58 -29 44 -50 -59 30 45 -66 0
23 24 -39 26 41 -47 43 -49 -58 -29 -44 -50 64 30 -51 -66 0
23 -39 26 41 -47 -28 43 49 -29 -44 -50 59 -64 -51 60 -66 0
23 24 -39 26 41 -47 28 -49 -29 -50 -59 -64 -45 -51 60 66 0
23 24 -39 26 41 -47 -28 -49 -58 29 -44 50 64 30 -65 66 0
23 24 -39 26 41 -47 28 49 -58 -29 -44 -50 64 30 65 -66 0
23 24 -39 26 41 -47 -28 -43 -49 29 50 -59 64 30 -65 66 0
23 24 -39 26 41 -47 28 -43 49 -29 -50 -59 64 30 65 -66 0
23 24 -39 26 41 -47 28 -29 -50 -59 -64 30 -45 51 65 66 0
23 24 26 41 -47 43 -29 44 -50 -59 -64 -30 -45 51 -65 -66 0
23 24 26 41 -47 43 -29 -44 50 -64 -30 45 -51 -60 -65 -66 0
23 24 -39 41 -47 -28 43 -49 -58 44 50 59 -30 45 -60 -65 -66 0
23 24 -39 26 -47 28 -49 58 29 -44 -50 -59 -30 45 -60 65 -66 0
23 24 -39 26 41 -47 -28 43 -58 29 -50 64 30 -51 -60 -65 -66 0
23 24 -39 26 41 -43 -58 -29 44 -50 -59 -64 30 51 60 65 -66 0
23 24 -39 41 -28 -49 -58 29 -44 50 59 64 -45 -51 -60 -65 66 0
23 24 26 41 -47 28 43 49 -44 -59 64 -30 -45 -51 60 -65 -66 0
23 24 -39 26 41 28 49 58 -44 -59 64 -30 45 -51 -60 -65 -66 0
-39 -27 -42 -48 28 -43 -49 -29 -50 -62 -64 -30 -45 -63 65 0
24 -39 27 -42 48 -28 43 49 -29 -44 -50 62 -64 -45 63 -66 0
24 -39 -27 42 48 -28 -43 -49 -61 29 -44 50 64 -45 -65 66 0
23 -27 -42 -48 28 43 49 61 -29 44 -62 -45 -51 -63 -65 66 0
23 24 -39 27 42 -28 -43 -49 -61 44 -50 62 64 30 63 -65 -66 0
23 24 -39 -27 -42 48 28 -43 -49 29 62 -64 30 -45 -63 -65 66 0
23 24 -39 48 28 43 -49 61 -44 -50 -62 64 -30 -45 -63 65 -66 0
23 24 -39 -27 -42 28 43 -49 61 -44 -50 -62 64 51 -63 65 -66 0
23 24 -39 -42 -48 -28 -43 -61 29 44 -50 62 64 51 -63 -65 66 0
23 24 -39 -27 -42 -43 -49 -61 29 44 -50 62 64 51 -63 -65 66 0
23 24 -39 27 -42 -48 28 -43 -61 29 -44 64 -30 51 -63 -65 66 0
23 -40 26 41 52 27 57 28 -43 -54 -58 -61 -29 -44 55 59 0
23 -25 -40 26 52 -53 57 -28 43 -54 -58 -61 29 -44 -55 59 0
23 -25 -40 26 41 52 27 -42 -57 28 -54 58 29 -44 -55 62 0
23 -25 -40 26 41 52 -27 -53 -57 -54 58 -61 29 -44 -55 62 0
23 -25 -40 26 41 52 -27 -53 -57 28 -43 -54 61 -55 59 -62 0
23 -25 -40 26 41 52 -53 57 -28 -54 -58 -61 29 -44 -55 64 0
23 -25 -40 26 41 52 -53 57 -43 -54 -58 -61 -29 44 -55 64 0
23 -25 -40 26 41 52 -27 42 -53 -43 -54 -58 61 -55 59 -64 0
23 -40 26 41 52 -27 -42 53 57 28 58 29 -44 -55 -59 -64 0
-40 26 41 -42 53 -57 28 43 54 58 61 -29 -44 -55 59 -64 0
23 -25 -40 26 41 52 -53 57 28 -43 -54 -29 -55 -59 -62 64 0
23 -25 -40 26 41 52 27 -42 -53 -54 58 -29 -55 -59 62 -64 0
23 -25 -40 26 41 52 -42 53 57 58 61 -29 -55 -59 62 -64 0
23 -25 -40 26 41 52 57 -43 -54 -58 -61 -29 55 59 62 64 0
23 -40 26 41 52 27 28 -43 -54 -58 -61 -29 55 -59 -62 -64 0
23 -25 -40 26 41 52 -53 57 -28 43 -54 -44 -55 -59 -62 64 0
23 -25 -40 26 41 52 57 -28 -54 -58 -61 -44 55 59 62 64 0
23 -25 -40 26 41 52 57 -28 54 58 61 -44 -55 -59 -62 64 0
23 -25 -40 26 41 -27 42 -53 -57 28 54 58 -61 -44 59 -62 64 0
23 -25 -40 26 41 27 53 57 -43 58 61 -29 44 -55 -59 -62 -64 0
23 -25 -40 26 41 52 -27 -53 -57 28 -43 -54 61 -56 60 -63 0
23 -25 -40 26 41 52 -42 -53 -57 -28 43 -54 61 -56 60 -63 0
23 -25 -40 26 52 -53 57 28 -43 -54 58 -30 45 -56 -60 -63 0
23 -25 -40 26 41 52 27 -42 -53 -28 -54 -58 61 -56 60 -65 0
23 -25 -40 26 41 52 27 57 28 -43 -58 -61 -45 56 60 -65 0
23 -40 26 41 52 27 -42 -53 -57 -28 54 -58 -61 30 -63 -65 0
23 -40 26 41 52 -27 53 -57 28 -43 -54 -58 -61 30 -63 -65 0
23 -25 -40 26 41 52 -42 53 57 -28 -54 -58 61 60 63 -65 0
23 -25 -40 26 41 52 -27 -53 -57 -43 54 58 61 60 -63 65 0
23 -25 -40 26 41 52 -27 53 57 -43 -54 -58 61 60 63 -65 0
23 -25 -40 26 41 52 57 -28 54 58 61 -45 -56 -60 -63 65 0
23 -25 -40 26 52 27 -42 -57 28 -43 -54 -58 -61 30 45 56 -63 0
23 -40 41 52 27 -42 53 57 -28 -54 -58 61 -30 -45 -56 63 -65 0
23 -25 -40 26 52 -27 42 -53 -57 -43 58 -61 30 45 60 -63 65 0
23 -25 -40 26 41 52 -27 -53 -57 -55 59 -62 30 -45 -56 63 0
23 -40 26 41 52 27 -42 -53 -57 -29 -44 55 59 30 60 -63 0
23 -25 -40 26 41 52 -27 42 -57 -29 55 59 -62 45 60 -63 0
23 -25 -40 41 52 27 -42 -53 -57 -29 44 -55 59 -56 60 -63 0
23 -25 -40 26 41 52 -27 -53 -57 29 -44 -55 62 -56 60 -63 0
-40 26 41 52 27 53 57 -29 -44 -55 -59 62 45 -56 60 -63 0
23 -40 26 41 52 27 57 -29 -44 55 59 30 -45 -56 -60 -63 0
23 -25 -40 26 41 52 27 -42 -53 -29 -55 -59 62 -56 60 -66 0
23 -25 -40 26 41 52 -27 42 -53 -44 -55 -59 62 -56 60 -66 0
23 -40 26 41 52 27 -42 -53 -57 -29 55 -59 -62 30 -63 -66 0
23 -25 -40 26 41 52 -42 -53 -57 -29 55 59 62 60 -63 66 0
23 -25 -40 26 41 52 -42 53 57 -29 -55 -59 62 60 63 -66 0
23 -25 -40 26 41 52 -27 -53 -57 -44 55 59 62 60 -63 66 0
23 -25 -40 26 41 52 -27 53 57 -44 -55 -59 62 60 63 -66 0
23 -40 26 41 52 27 29 -44 -55 -59 -62 -30 56 -60 -63 -66 0
23 -40 26 -27 -42 53 29 -44 -55 -59 30 45 56 60 63 -66 0
23 -25 -40 41 52 -54 58 29 -44 -55 -59 -64 -30 45 -56 60 0
23 -25 -40 26 41 52 -43 -54 -58 -29 44 -55 64 -56 60 -65 0
23 -25 -40 26 41 52 28 -43 -54 -29 -55 -59 64 -56 60 -66 0
23 -25 -40 26 41 52 -43 -54 -58 -29 55 59 64 60 -65 66 0
23 -25 -40 26 41 52 -43 54 58 -29 -55 -59 64 60 65 -66 0
23 -25 -40 26 41 52 -28 -54 -58 -44 55 59 64 60 -65 66 0
23 -25 -40 26 41 52 -28 54 58 -44 -55 -59 64 60 65 -66 0
23 -25 -40 26 41 52 -28 54 58 44 59 -30 45 -60 -65 -66 0
23 -25 -40 26 41 52 28 -43 -54 -55 59 -30 -56 -60 65 -66 0
23 -25 -40 26 41 52 58 -29 55 59 64 -45 -56 -60 -65 66 0
23 -40 26 41 52 28 -29 55 -59 -64 30 -45 -56 -60 -65 -66 0
23 -40 26 41 52 28 54 58 -29 44 -55 -59 -64 -30 -45 65 -66 0
23 -40 41 52 -28 -54 -58 29 -44 55 59 64 -30 -45 -56 -65 66 0
-25 26 41 52 -28 -43 -54 -58 29 -44 -55 64 30 45 60 -65 66 0
23 -40 26 41 52 -28 -43 29 55 59 64 -30 45 -56 -60 -65 -66 0
-25 -40 -27 -42 -53 28 -43 29 -44 -55 -64 -30 -45 -63 -65 0
-25 -40 27 -42 -43 -54 -61 -29 -44 -55 62 -30 -56 -63 -65 0
-25 -40 -27 42 -28 -43 -54 61 -44 -55 -62 -30 -56 -63 -66 0
-25 -40 -42 -28 -43 -54 -61 -29 -44 -55 62 -30 -63 -65 66 0
-25 -40 -27 -42 -53 -43 -61 -29 -44 -55 64 -30 -63 -65 66 0
-25 -40 -27 -42 -53 -28 -43 -54 -44 -62 64 -30 -63 65 -66 0
-25 -40 -27 -42 -53 -28 -61 -29 -44 -55 64 -45 -63 -65 66 0
-25 -40 -42 -53 -28 -54 -61 -29 -44 -55 -30 45 -63 -65 66 0
-25 -40 -42 -53 -28 -54 -61 -29 -44 -55 30 -45 -63 -65 66 0
-25 -40 -27 -53 -43 -54 -61 -29 -44 -55 -30 45 -63 -65 66 0
-25 -40 -27 -53 -28 -43 -54 -44 -55 -62 -30 -45 63 -65 66 0
-25 -40 -27 -42 -53 -43 -54 -29 -55 -64 -30 -45 -63 65 66 0
-25 -40 -27 -42 -53 -43 -54 -29 -55 -64 -30 45 -63 65 -66 0
23 26 41 -27 -57 28 -43 -58 -61 -44 59 62 -64 30 -63 -65 0
23 26 41 -42 -57 -28 58 61 -29 44 -59 -62 -64 45 -63 -66 0
23 26 41 -27 -42 57 -43 58 61 59 64 -30 -60 -63 65 -66 0
23 26 41 57 -28 -43 58 -44 59 62 64 -30 -60 -63 -65 66 0
23 26 41 27 -28 -43 -61 44 -59 64 30 -45 -60 -63 -65 -66 0
23 26 41 57 -28 43 -44 -59 -62 64 -30 -45 60 -63 -65 -66 0
23 41 -27 42 -57 28 -43 -58 -61 44 59 64 -30 45 -60 -63 -66 0
23 41 42 57 -28 43 -58 -61 29 -44 59 -62 -30 45 -63 -65 -66 0
24 -25 46 -47 -27 -48 -57 -49 -54 -58 -29 -55 -59 -62 -64 0
24 -25 26 -47 52 -48 53 57 -28 -49 -54 -58 61 -50 62 -64 0
24 -25 26 -47 52 -53 -28 -49 -54 -58 -61 29 50 -55 62 64 0
24 -25 46 26 -47 -27 -48 -53 -57 49 54 -58 61 -59 -62 64 0
-25 46 26 -47 52 -48 -28 -49 -54 -58 -61 29 -50 59 62 64 0
24 -25 46 -47 52 -57 -28 -49 -54 -58 -61 29 50 -59 62 64 0
24 -25 26 -47 27 48 53 -57 28 -54 -58 61 55 -59 62 -64 0
24 -25 46 -47 52 -27 -28 -49 -54 -58 -61 -29 55 59 62 64 0
24 -25 46 26 -47 -53 -28 -49 -54 -58 -61 29 -55 59 62 64 0
24 -25 26 -47 52 -48 -28 -49 -54 -58 -61 -50 55 59 62 64 0
24 -25 46 26 -47 -57 -28 -49 -54 -58 -61 50 55 -59 62 64 0
-25 46 26 -47 52 -27 48 53 -28 61 -29 -50 -55 -59 62 -64 0
24 -25 26 -47 52 -48 53 57 -49 61 -29 -50 -55 -59 62 -64 0
-25 46 26 -47 52 -27 -28 49 54 61 -29 -50 -55 -59 -62 64 0
24 -25 46 26 -47 48 53 -57 -58 61 -29 -50 -55 -59 62 -64 0
24 -25 46 -47 52 -57 28 49 -58 61 -29 -50 -55 -59 -62 64 0
24 -25 46 -47 52 -27 -28 54 58 61 -29 -50 -55 -59 -62 64 0
24 -25 46 26 -47 -53 28 -54 58 61 -29 -50 -55 -59 -62 64 0
24 -25 26 -47 52 -48 -49 54 58 61 -29 -50 -55 -59 -62 64 0
24 -25 46 26 -47 27 53 -57 28 -54 -58 61 29 -50 -55 -59 -64 0
-25 46 26 52 -27 -48 -53 28 49 -54 58 61 -29 -50 -59 -62 64 0
24 -25 46 26 -27 48 53 57 -49 -54 -58 61 -29 -55 -59 62 -64 0
24 -25 46 52 -27 -48 -57 28 49 -54 58 61 -29 -55 -59 -62 64 0
24 -25 46 -47 -48 -53 -57 -28 -54 -58 -61 -30 -51 -60 -65 0
-25 46 26 -47 52 -27 -48 -53 -57 -28 49 54 61 -30 -63 65 0
24 -25 46 -47 52 -27 -48 -53 -57 -28 54 58 61 -30 -63 65 0
-25 46 26 -47 52 -27 48 53 -28 -49 -54 -58 61 -30 63 -65 0
24 -25 26 -47 52 -48 53 57 -28 -49 -54 -58 61 -51 63 -65 0
24 -25 26 -47 52 -27 -48 -53 -57 28 49 -54 61 -56 -63 65 0
24 -25 46 26 -47 -27 -48 -53 -57 28 -54 58 61 -56 -63 65 0
24 -25 26 -47 52 27 48 -53 -28 -49 -54 -58 61 -56 63 -65 0
24 -25 46 -47 52 -27 -48 -53 -57 28 49 -58 61 -60 -63 65 0
24 -25 46 -47 52 27 48 -57 -28 -49 -54 -58 61 -60 63 -65 0
24 -25 46 -47 52 -57 -28 -49 -54 -58 -61 30 51 -60 63 65 0
46 26 -47 52 -27 -48 -57 28 49 54 -58 61 -30 -51 -56 -63 65 0
-25 46 26 52 -27 -48 -53 28 49 -54 58 61 -30 -51 -60 -63 65 0
24 46 26 -47 27 -48 53 57 -49 -54 -58 61 -30 -56 -60 63 -65 0
24 -25 46 52 -27 -48 -57 -28 -54 -58 -61 30 51 -56 60 63 65 0
-25 26 -47 52 -27 -48 -53 -29 -50 -59 -62 -51 -56 -60 -63 0
-25 46 26 -47 52 -27 -48 -53 -57 -29 50 55 62 -30 -63 66 0
24 -25 46 -47 52 -27 -48 -53 -57 -29 55 59 62 -30 -63 66 0
24 -25 26 -47 52 -27 -48 -53 -57 -50 55 59 62 -51 -63 66 0
24 -25 26 -47 52 -48 53 57 -29 -50 -55 -59 62 -51 63 -66 0
24 -25 46 26 -47 27 -53 57 -29 -50 -55 -59 62 -56 63 -66 0
46 -47 52 -27 -48 -53 -57 -29 -55 59 -62 30 51 56 63 -66 0
24 -25 46 -47 52 -27 -48 -53 -57 29 50 -59 62 -60 -63 66 0
24 -25 46 26 -47 -27 -48 -53 -57 50 55 -59 62 -60 -63 66 0
-25 46 26 -47 52 27 -48 53 -29 -50 55 -59 -30 -51 56 63 -66 0
-25 46 26 52 -27 -48 -53 29 50 -55 59 62 -30 -51 -60 -63 66 0
24 -25 46 26 -48 -53 -57 -29 50 55 59 62 -30 -56 -60 -63 66 0
24 46 26 -47 -48 -53 -57 29 -50 55 59 62 -30 -56 -60 -63 66 0
-25 46 26 -47 52 -28 -49 -54 -58 -29 50 55 64 -30 -65 66 0
-25 46 26 -47 52 -28 49 54 -29 -50 -55 -59 64 -30 65 -66 0
-25 46 26 -47 52 28 -49 58 -29 -50 -55 -59 64 -51 65 -66 0
24 -25 26 -47 52 -49 54 58 -29 -50 -55 -59 64 -51 65 -66 0
24 -25 26 -47 52 -28 -49 -54 -58 29 50 -55 64 -56 -65 66 0
24 -25 26 -47 52 28 49 -54 -29 -50 -55 -59 64 -56 65 -66 0
24 -25 46 26 -47 28 -54 58 -29 -50 -55 -59 64 -56 65 -66 0
24 -25 46 -47 52 -28 -49 -54 -58 29 50 -59 64 -60 -65 66 0
24 -25 46 26 -47 -28 -49 -54 -58 50 55 -59 64 -60 -65 66 0
24 -25 46 -47 52 28 49 -58 -29 -50 -55 -59 64 -60 65 -66 0
24 -25 46 26 -47 49 54 -58 -29 -50 -55 -59 64 -60 65 -66 0
24 -25 26 -47 52 -54 29 50 -55 64 -30 -51 -56 -60 -65 66 0
-25 46 26 52 -28 -49 -54 29 50 -55 59 64 -30 -51 -60 -65 66 0
24 46 -47 52 -28 -49 -58 29 -50 55 59 64 -30 -56 -60 -65 66 0
-25 -27 -48 -53 49 -54 -61 -50 55 -62 64 30 51 -56 63 65 0
24 26 -47 27 -28 -49 -61 29 50 -59 62 64 30 -51 60 -65 0
24 26 -47 27 57 -28 -49 -58 61 29 50 -59 -62 30 63 -65 0
24 -27 -48 -57 -28 -58 -61 29 50 59 62 -64 30 -51 -63 65 0
26 -27 -48 -57 -28 -49 -61 29 50 59 62 -64 30 -60 -63 65 0
24 26 -47 -27 -48 28 -49 58 -61 29 50 -59 62 30 -63 66 0
24 26 -47 -27 -48 -57 28 -49 58 29 50 62 -64 30 -63 66 0
24 26 -47 27 -48 57 -28 -49 -58 29 50 -62 64 30 -65 66 0
24 26 -47 27 57 -28 -49 -58 61 -29 50 -62 -64 63 -65 -66 0
24 26 -47 27 -57 -28 49 -61 29 -59 62 64 30 -51 -60 -63 -65 0
24 26 -47 -27 -57 28 -49 58 61 -50 -59 -62 64 51 -63 65 -66 0
24 26 -47 -48 -57 28 49 -58 61 -29 -50 -62 64 60 -63 65 -66 0
24 26 -47 -27 48 28 -58 61 29 -50 -59 -62 30 -60 -63 65 -66 0
24 26 -47 27 48 -28 -49 -58 -61 29 62 -64 51 -60 63 65 -66 0
24 48 -57 28 49 58 61 -29 50 -59 62 -30 -51 -60 -63 -65 66 0
-25 26 52 57 -28 -58 -61 29 -55 59 62 64 -30 56 60 -65 0
-25 26 52 -27 -57 28 -54 58 61 -29 55 59 -62 60 -63 65 0
-25 26 52 53 57 -28 -54 -58 61 29 -55 59 -62 60 63 -65 0
-25 26 52 27 -53 57 -28 -58 61 -29 55 59 -64 60 63 -65 0
52 -27 -53 -28 -54 -58 -61 29 55 59 -62 64 56 -60 63 -65 0
-25 26 52 57 28 58 61 -29 55 59 -64 -30 -56 -60 -63 65 0
-25 26 52 27 57 -28 54 58 -61 -29 -55 -59 62 60 63 -66 0
-25 26 52 -53 -57 28 -54 58 -61 -29 55 59 62 60 -63 66 0
-25 26 52 -27 53 57 -28 -58 -61 29 -55 59 64 60 -65 66 0
-25 26 52 -27 53 57 -28 -54 -58 29 59 -62 64 60 -65 66 0
-25 26 52 -27 -53 -57 -28 61 -29 59 -62 64 -30 60 -65 66 0
52 27 53 57 -28 -54 -58 61 -29 -59 -62 -64 -56 60 -65 66 0
-25 26 52 57 -28 -54 -58 -61 -29 55 59 30 60 63 65 -66 0
52 -53 57 -28 -54 -58 -61 29 55 59 64 -30 -60 63 -65 -66 0
-25 26 52 -27 57 54 -58 -61 -29 59 62 64 -30 -56 60 -63 -65 0
-25 26 52 -27 -53 -54 -58 -61 -29 55 59 62 64 30 -63 -65 66 0
-25 26 52 -27 -57 -28 -54 -61 29 -55 59 62 64 56 -63 -65 66 0
-25 26 52 53 57 -28 -54 -58 -61 -29 55 62 64 60 63 -65 -66 0
31 32 -39 33 -40 46 -34 -47 52 -42 -48 53 57 36 -43 54 0
31 32 -39 33 -40 46 -34 -47 52 35 53 -57 36 43 -49 -58 0
31 32 -39 33 -40 46 -34 -47 52 35 42 -48 -57 36 54 -58 0
32 -39 33 -40 46 -34 41 52 -35 -42 -48 53 57 -43 54 58 0
31 32 -39 33 -40 46 -34 -47 52 35 -42 53 -43 -49 54 58 0
31 32 33 -40 46 -34 41 -47 35 42 -57 36 43 -49 -54 -58 0
32 -39 33 -40 46 -34 41 52 -42 53 57 -36 -43 -49 54 58 0
31 32 33 -40 46 -34 -47 52 35 -42 53 -57 36 43 -58 -61 0
31 32 33 -40 46 -34 41 -47 48 -57 -36 -43 49 -54 -58 -61 0
31 32 -39 33 46 52 -35 42 -53 -57 -36 -43 -49 54 -58 -61 0
31 32 -39 33 -40 -34 -47 52 35 -42 -48 -53 -57 36 -43 49 58 0
31 32 -39 33 -40 -34 -47 52 35 -42 -48 53 -57 36 -43 -49 58 0
31 -39 33 -40 46 -34 -47 52 -35 -42 -48 53 -57 43 49 54 -58 0
31 -39 33 -40 46 -34 -47 52 35 -42 -48 53 -57 43 -49 54 -58 0
31 32 -39 33 -40 -34 -47 52 35 -42 -48 57 36 -43 -49 54 -58 0
31 32 -39 33 -40 -34 -47 52 35 -42 48 57 36 -43 -49 -54 -58 0
31 -39 33 -40 46 -34 -47 52 42 -48 53 -57 36 -43 -49 54 -58 0
31 -39 33 -40 46 -34 -47 52 42 48 53 -57 -36 -43 -49 54 -58 0
31 32 -39 33 -40 46 -34 -47 52 35 -42 -48 -57 36 -43 58 -61 0
31 32 -39 33 -40 46 -34 -47 52 -42 -48 53 -57 43 54 -58 -61 0
31 -39 33 -40 46 41 -47 52 35 -42 -48 53 -36 -49 54 -58 -61 0
31 32 -39 33 -40 46 -34 -47 52 42 53 -57 -43 -49 54 -58 -61 0
31 32 -39 33 -40 46 -34 -47 52 -42 -48 53 57 37 -44 55 0
31 32 -39 33 -40 46 -34 -47 52 35 53 -57 37 44 -50 -59 0
31 32 -39 33 -40 46 -34 -47 52 35 42 -48 -57 37 55 -59 0
32 -39 33 -40 46 -34 41 52 -35 -42 -48 53 57 -44 55 59 0
31 32 -39 33 -40 46 -34 -47 52 35 -42 53 -44 -50 55 59 0
31 32 33 -40 46 -34 41 -47 -35 -42 48 -53 -57 50 -59 -62 0
31 32 -39 33 -40 -34 -47 52 35 -42 -48 -53 -57 37 -44 50 59 0
31 32 -39 33 -40 -34 -47 52 35 -42 -48 53 -57 37 -44 -50 59 0
31 -39 33 -40 46 -34 -47 52 -35 -42 -48 53 -57 44 50 55 -59 0
31 -39 33 -40 46 -34 -47 52 35 -42 -48 53 -57 44 -50 55 -59 0
31 32 -39 33 -40 -34 -47 52 35 -42 -48 57 37 -44 -50 55 -59 0
31 32 -39 33 -40 -34 -47 52 35 -42 48 57 37 -44 -50 -55 -59 0
31 -39 33 -40 46 -34 -47 52 42 -48 53 -57 37 -44 -50 55 -59 0
31 -39 33 -40 46 -34 -47 52 42 48 53 -57 -37 -44 -50 55 -59 0
31 32 -39 33 -40 46 -34 -47 52 -42 -48 53 -57 44 55 -59 -62 0
31 -39 33 -40 46 41 -47 52 35 -42 -48 53 -37 -50 55 -59 -62 0
31 32 -39 33 -40 46 -34 -47 52 42 53 -57 -44 -50 55 -59 -62 0
31 32 -39 33 -40 46 -34 -47 52 -42 -48 53 57 38 -45 56 0
32 -39 33 -40 46 -34 41 52 -35 -42 48 -53 -57 -45 51 -63 0
31 32 33 -40 46 -34 41 -47 -35 -42 48 -53 -57 51 -60 -63 0
31 32 33 -40 46 -34 41 -47 48 -57 -38 -45 51 -56 -60 -63 0
31 -39 33 -40 46 -34 -47 52 35 -42 -48 53 -57 45 -51 56 -60 0
31 32 -39 33 -40 46 -34 -47 52 35 -42 -48 -57 38 -45 60 -63 0
31 32 -39 33 -40 46 -34 -47 52 -42 -48 53 -57 45 56 -60 -63 0
31 32 -39 33 -40 46 41 52 -35 -48 53 -57 -45 -51 56 -60 -63 0
31 32 -39 33 -40 46 -34 -47 52 -43 -49 54 58 37 -44 55 0
31 32 -39 33 -40 46 -34 -47 52 36 54 -58 37 44 -50 -59 0
31 32 -39 33 -40 46 -34 -47 52 36 43 -49 -58 37 55 -59 0
31 32 -39 33 -40 46 -34 -47 52 36 -43 54 -44 -50 55 59 0
32 -39 33 -40 46 -34 41 52 -43 54 58 -37 -44 -50 55 59 0
31 32 33 -40 46 -34 41 -47 -36 -43 49 -54 -58 50 -59 -64 0
31 32 33 -40 46 -34 -47 52 36 43 -58 37 -44 55 -59 -64 0
32 -39 33 -40 46 -34 41 52 -43 49 -37 -44 50 -55 -59 -64 0
31 32 33 -40 46 -34 41 -47 49 -58 -37 -44 50 -55 -59 -64 0
31 32 -39 33 -40 -34 -47 52 36 -43 -49 -54 -58 37 -44 50 59 0
31 -39 33 -40 46 -34 -47 52 -36 -43 -49 54 -58 44 50 55 -59 0
31 32 -39 33 -40 -34 -47 52 36 -43 -49 58 37 -44 -50 55 -59 0
31 32 -39 33 -40 -34 -47 52 36 -43 49 58 37 -44 -50 -55 -59 0
31 -39 33 -40 46 -34 -47 52 43 -49 54 -58 37 -44 -50 55 -59 0
31 -39 33 -40 46 -34 -47 52 43 49 54 -58 -37 -44 -50 55 -59 0
31 32 -39 33 -34 41 -47 52 36 -49 54 -58 37 -44 -50 -55 -64 0
31 32 -39 33 -40 46 -34 -47 52 36 -43 -49 -58 37 -44 59 -64 0
31 32 -39 33 -40 46 -34 -47 52 36 -43 58 37 -44 -50 -59 -64 0
31 32 -39 33 -40 46 -34 -47 52 -43 -49 54 -58 44 55 -59 -64 0
31 32 -39 33 -34 41 -47 52 36 -43 -49 -54 37 -50 55 -59 -64 0
31 32 -39 33 -40 46 -34 -47 52 43 54 -58 -44 -50 55 -59 -64 0
31 32 33 -40 46 -34 41 -47 36 43 -49 -54 -58 38 45 -60 0
31 32 -39 33 -40 46 -34 -47 52 36 43 -49 -58 38 56 -60 0
31 32 -39 33 -40 46 -34 -47 52 36 -43 54 -45 -51 56 60 0
31 32 -39 33 -40 -34 -47 52 36 -43 -49 -54 -58 38 -45 51 60 0
31 32 -39 33 -40 46 -34 -47 52 -43 -49 54 -58 45 56 -60 -65 0
31 32 -39 33 46 41 -47 50 55 59 38 45 56 60 66 0
31 32 -39 33 -40 46 -34 -47 52 37 44 -50 -59 38 56 -60 0
32 -39 33 -40 46 -34 41 52 -37 -44 -50 55 59 -45 56 60 0
31 32 -39 33 -40 46 -34 -47 52 37 -44 55 -45 -51 56 60 0
32 -39 33 -40 46 -34 41 52 -44 55 59 -38 -45 -51 56 60 0
32 -39 33 -40 46 -34 41 52 -37 -44 50 -55 -59 -45 51 -66 0
31 32 33 -40 46 -34 41 -47 -37 -44 50 -55 -59 51 -60 -66 0
31 32 -39 33 -40 -34 -47 52 37 -44 -50 -55 -59 38 -45 51 60 0
31 32 -39 33 -34 41 -47 52 37 -50 55 -59 38 -45 -51 -56 -66 0
31 32 -39 33 -40 46 -34 -47 52 37 -44 -50 -59 38 -45 60 -66 0
31 32 -39 33 -40 46 -34 -47 52 37 -44 59 38 -45 -51 -60 -66 0
31 32 -39 33 -40 46 -34 -47 52 -44 -50 55 -59 45 56 -60 -66 0
31 32 -39 33 -34 41 -47 52 37 -44 -50 -55 38 -51 56 -60 -66 0
31 32 -39 33 -40 46 -42 -48 53 -36 -49 54 61 37 -44 55 0
31 -39 33 -40 46 35 -42 -36 -43 49 -54 -61 37 -44 -50 55 0
31 32 -39 33 46 35 53 -36 -43 -49 54 -61 37 44 -50 -55 0
31 32 -39 33 -40 46 -35 -42 -53 -43 -49 54 61 37 -44 -62 0
31 32 -39 33 -40 46 -42 -48 53 36 -43 54 -37 -50 55 62 0
31 32 -39 33 -40 46 -35 -48 53 36 -43 54 -44 -50 55 62 0
31 32 -39 33 -40 46 -35 -42 -48 36 -43 -61 -44 50 -55 62 0
31 -39 33 -40 46 35 -42 36 -43 -49 54 -37 -44 50 -55 -62 0
31 32 -39 33 -40 46 -42 -48 53 -36 -43 -54 61 37 -44 -64 0
31 32 -39 33 -40 46 35 -42 -36 -43 -49 -61 -44 50 -55 64 0
31 32 -39 33 -40 46 35 -42 -36 -43 -54 -61 -44 -50 55 64 0
31 -39 33 -40 46 35 -42 -48 53 36 -43 -37 -44 50 -55 -64 0
31 32 -39 33 -40 35 -42 53 -43 54 -61 -37 -44 -50 -55 64 0
31 32 -39 33 -40 46 35 42 -48 -36 -43 -54 61 37 62 -64 0
31 32 -39 33 -40 46 35 -42 -43 49 -54 -37 -44 -50 -62 64 0
31 32 33 -40 35 -42 53 -36 -43 -49 -54 37 44 50 -62 64 0
31 32 -39 33 -40 46 35 42 -53 36 61 -37 -44 -50 62 -64 0
31 32 -39 33 -40 46 35 36 43 -54 61 -37 -44 -50 -62 64 0
31 32 -39 33 46 -35 42 -53 -36 -43 -49 54 -61 55 -62 -64 0
31 32 -39 33 -40 46 -42 -48 53 36 -43 -37 -44 -55 62 -64 0
32 -39 33 -40 46 -35 -42 -48 53 -43 54 -37 44 55 62 64 0
31 32 -39 33 -40 46 35 -42 -43 -49 54 -37 -44 -55 -62 64 0
31 32 -39 33 -40 46 -35 -42 -48 36 -61 37 44 -55 62 64 0
31 32 -39 33 -40 46 35 42 -48 36 61 -37 -44 -55 62 -64 0
31 32 -39 33 -40 46 35 -36 -43 -49 -61 37 44 -55 62 64 0
31 32 -39 33 -40 46 35 36 43 -49 61 -37 -44 -55 -62 64 0
31 32 -39 33 46 -35 42 -53 54 -61 -37 -44 -50 55 -62 -64 0
31 32 -39 33 -40 46 42 48 -36 49 -54 -61 -44 50 -55 -62 -64 0
31 32 -40 46 35 -48 -53 36 43 49 54 -37 -44 -50 55 -62 -64 0
31 32 -39 33 46 35 42 53 -49 -54 61 -37 -44 50 -55 -62 -64 0
31 32 33 -40 46 35 48 -36 -43 49 -54 -61 38 45 -51 -56 0
31 -39 33 -40 46 -35 -42 48 -53 36 -43 -49 54 38 -45 -63 0
31 32 -39 33 -40 46 -35 -42 -53 -43 -49 54 61 38 -45 -63 0
31 32 -39 33 46 -35 -42 -48 53 36 43 -49 -54 38 56 -63 0
31 32 -39 33 -40 46 -35 -42 -53 36 -43 -61 -45 -51 56 63 0
31 32 -39 33 -40 46 -42 48 -53 -36 -43 -49 61 38 -45 -65 0
31 32 -39 33 -40 46 35 -42 -36 -43 -49 -61 -45 51 -56 65 0
31 32 -39 33 -40 46 -35 -42 -48 36 43 -54 61 38 -63 65 0
31 32 -39 33 -40 46 35 42 -48 -36 -43 -54 61 38 63 -65 0
31 32 -39 33 -40 46 35 -36 -43 -49 -61 38 45 -56 63 65 0
31 32 -39 33 46 53 -36 -43 -49 54 -61 -38 45 -56 -63 -65 0
31 -39 33 -40 46 -35 -42 48 -53 37 -44 -50 55 38 -45 -63 0
31 32 -39 33 -40 46 -35 -42 -48 -44 50 -55 62 38 -45 -63 0
31 32 -39 33 -40 46 -35 -42 -53 -44 -50 55 62 38 -45 -63 0
31 32 -39 33 -40 46 -42 48 -53 -37 -44 -50 62 38 -45 -66 0
31 32 -39 33 -40 46 -42 -48 53 -37 -44 -55 62 38 -45 -66 0
31 32 -39 33 -40 46 35 53 -37 -50 55 -62 38 45 -51 -66 0
31 32 -39 33 -40 46 35 -42 -37 -44 -50 -62 -45 51 -56 66 0
31 32 -39 33 -40 46 -35 -42 -53 37 44 -50 62 38 -63 66 0
31 32 -39 33 -40 46 35 42 -53 -37 -44 -50 62 38 63 -66 0
31 32 -39 33 -40 46 -35 -42 -48 37 44 -55 62 38 -63 66 0
31 32 -39 33 -40 46 35 42 -48 -37 -44 -55 62 38 63 -66 0
31 32 -39 33 -40 46 35 -42 -44 50 -55 -38 -45 -51 -63 66 0
31 32 -39 33 46 -35 -42 -48 53 -37 44 -55 -62 56 -63 -66 0
31 32 -39 33 46 -35 42 -53 -37 -44 -50 55 -62 56 -63 -66 0
31 32 -39 33 -40 46 35 -37 -44 -50 -62 38 45 -56 63 66 0
31 32 -39 33 -40 46 35 37 44 -50 62 -38 -45 -56 -63 66 0
32 33 -40 35 -42 -48 53 -37 -44 -50 -55 62 38 45 51 56 -66 0
32 -39 33 -40 46 35 42 53 -37 -44 50 -55 -62 38 -51 63 -66 0
31 32 -39 33 -40 35 -42 53 37 -44 -50 -55 -38 51 -56 63 -66 0
31 32 -39 46 -35 -42 -53 37 44 -50 55 62 -45 -51 -56 -63 66 0
32 -39 33 -40 46 35 -48 37 44 55 62 -38 -45 51 -56 -63 -66 0
31 32 -39 33 -40 46 -43 49 -54 -37 50 -55 64 38 -45 51 0
31 32 -39 33 -40 46 -36 -43 -49 -44 50 -55 64 38 -45 -65 0
32 -39 33 -40 46 -36 43 49 -37 -44 50 -55 64 -45 51 65 0
31 -39 33 -40 46 36 -43 -49 54 37 -44 -38 -45 51 -56 -66 0
31 32 -39 33 -40 46 -36 -43 -54 37 44 -50 64 38 -65 66 0
31 32 -39 33 -40 46 36 43 -54 -37 -44 -50 64 38 65 -66 0
31 32 -39 33 -40 46 -36 -43 -49 37 44 -55 64 38 -65 66 0
31 32 -39 33 -40 46 36 43 -49 -37 -44 -55 64 38 65 -66 0
31 32 -39 33 -40 46 36 49 37 44 -55 -38 51 -56 -65 -66 0
31 -39 -40 46 36 -43 49 -37 50 64 -38 -45 51 -56 -65 -66 0
31 32 -39 33 46 54 -37 44 -55 -64 -38 -45 -51 56 -65 -66 0
31 32 -39 33 -40 46 36 -43 -37 50 -55 64 38 -45 -56 -65 -66 0
31 32 -39 46 36 43 -49 54 -44 -50 -55 64 -38 -45 -56 65 -66 0
32 -39 33 -40 46 36 43 54 37 -50 64 -38 -45 51 -56 -65 -66 0
31 32 -39 33 46 36 43 54 -50 -55 64 -38 -45 51 -56 -65 -66 0
31 -39 -34 -47 -35 -48 -57 -36 -43 -49 -61 37 -44 -50 -59 0
31 -39 -34 -47 -42 -48 -57 -36 -43 -58 -61 -37 44 -50 -59 0
31 -39 -34 -47 -35 -42 -57 -43 -49 -58 -61 -37 44 -50 -59 0
31 -39 -34 -47 -35 -48 -57 36 -43 -49 -58 -37 -44 -50 -62 0
31 -39 -34 -47 -42 -48 -57 -36 -43 -49 -58 -37 44 -59 -62 0
31 -39 -34 -47 -42 -48 -57 -36 43 -49 -58 -37 -44 -59 -62 0
31 -39 -34 -47 -35 -42 -48 36 -43 -49 -58 -37 -50 -59 -62 0
31 -39 -34 -47 -35 -42 -57 -36 43 -49 -58 -44 -50 -59 -62 0
-39 -34 -47 -35 -42 36 -43 -49 -58 61 -37 -44 -50 -59 -62 0
31 -39 -34 -47 -35 42 -48 -57 -43 -49 -58 -37 -44 -59 -64 0
31 -39 -34 -47 -35 -42 -48 -57 -36 43 -58 -44 -50 -59 -64 0
31 -39 -34 -47 -35 42 -48 -57 -36 -43 -58 -44 -50 -59 -64 0
-39 -34 -47 35 -42 -48 -57 -36 -43 -49 -58 -37 -44 62 -64 0
31 32 -39 41 -47 -35 42 57 36 43 -49 -58 -61 37 44 -50 0
32 -39 -34 41 -47 -35 42 -57 36 43 -49 -58 61 44 -50 -59 0
31 32 -39 41 -47 -35 -42 -48 57 36 -49 -61 37 44 -50 -59 0
31 32 -39 -34 -47 35 -42 48 57 36 -58 61 37 44 -50 -59 0
31 32 -39 41 -47 35 -48 -36 -43 -49 58 -61 37 44 -50 -59 0
31 32 -39 41 -47 35 42 -48 -57 36 -49 -37 -44 -50 59 -64 0
31 32 -34 41 -47 35 42 -48 -57 43 -58 -37 -44 50 -59 -64 0
32 -39 -34 41 -47 42 -48 -57 -36 43 -58 37 44 -50 -59 64 0
31 32 -39 -34 -47 35 -42 57 36 -43 -49 -58 61 37 -44 -50 59 0
31 32 -39 -34 41 -47 42 48 43 -49 -58 61 -37 44 -59 -62 -64 0
31 -39 -34 41 -47 -35 42 48 57 36 -49 61 -37 -50 -59 62 -64 0
-39 -34 -47 -35 -42 48 57 -36 -43 -49 -58 -38 -45 -63 -65 0
32 -39 -34 -47 -42 -48 -57 -36 -43 49 -38 -45 -60 -63 -65 0
31 32 -39 -34 -47 -35 -42 -36 -58 -61 -45 -51 -60 -63 -65 0
32 -39 -34 41 -47 35 42 -48 -57 -36 43 -58 61 45 -51 -60 0
31 32 -39 41 -47 35 -48 -36 -43 -49 58 -61 38 45 -51 -60 0
31 32 -34 41 -47 -35 -42 48 -57 36 43 -49 -58 45 -60 -63 0
31 32 -39 -34 41 -47 -35 42 -57 43 -49 -58 -61 45 51 -63 65 0
31 32 -39 -34 41 -47 35 -42 -48 36 -49 -58 -61 38 60 -63 65 0
31 32 -39 -34 -47 35 -42 48 57 -43 -49 -58 61 45 -60 63 -65 0
31 -39 -34 -47 -42 -48 -57 -37 -44 -50 -59 -38 45 -60 -63 0
31 -39 -34 -47 -35 -42 -48 37 -44 -50 -59 -38 -51 -60 -63 0
32 -39 -34 41 -47 -35 42 -57 37 44 -50 -59 62 45 -51 -60 0
31 32 -34 41 -47 -35 -42 48 -57 37 44 -50 -59 45 -60 -63 0
31 32 -39 41 -47 35 42 -48 -57 -37 -44 -50 59 38 -51 -66 0
31 32 -34 41 -47 35 42 -48 -57 -37 -44 50 -59 45 -60 -66 0
31 32 -39 -35 -42 -48 -57 37 44 59 62 -38 51 -60 -63 -66 0
31 -39 -34 41 -47 -35 -48 -57 -37 44 50 59 62 38 -51 -63 66 0
31 32 -39 -34 41 -47 -35 42 -57 44 -50 -59 -62 45 51 -63 66 0
31 32 -39 -34 41 -47 35 -48 -57 37 -44 -50 -62 38 60 63 -66 0
31 32 -39 -34 41 -47 35 -42 -48 37 -50 -59 -62 38 60 -63 66 0
31 32 -39 -34 -47 -42 -48 -57 37 -44 50 59 62 45 -60 -63 66 0
31 -39 -34 -47 -36 -49 -58 37 -44 -50 -59 -38 -45 -51 -65 0
-39 -34 -47 -36 43 49 -58 -37 -44 -64 -38 -45 -51 -60 -66 0
32 -39 -34 -47 -36 -43 49 -44 -50 -59 -38 -45 -60 -65 -66 0
32 -39 -34 41 -47 36 43 -49 -58 37 -44 -50 64 38 -51 -60 0
31 32 -34 41 -47 -36 -43 49 -58 37 44 -50 -59 45 -60 -65 0
32 -39 -34 41 -47 36 37 44 50 59 64 38 -45 -51 -65 -66 0
31 -39 -34 41 -47 -36 43 49 58 -37 -50 -59 64 38 -51 65 -66 0
31 32 -39 -34 41 -47 43 -49 -58 -37 44 -59 -64 45 51 65 -66 0
31 32 -39 -34 41 -47 -36 43 -58 44 -50 -59 -64 45 51 -65 66 0
31 32 -39 -34 -47 -43 -49 -58 37 -44 50 59 64 45 -60 -65 66 0
31 32 -39 -34 41 -47 -36 43 -58 44 50 -64 45 -51 -60 -65 66 0
31 32 -34 -47 -36 43 -58 -37 44 50 59 64 -45 -51 -60 -65 66 0
31 -39 35 42 -48 -36 -43 -49 61 -37 44 50 -64 -51 63 -65 0
31 32 -39 -35 -42 -48 -36 43 -61 37 50 62 -64 -63 -65 66 0
31 32 -39 -42 -48 36 -43 49 61 -37 -50 -62 64 45 -63 65 -66 0
31 32 -39 -35 -48 -43 -49 -61 37 -44 50 62 64 45 -63 -65 66 0
31 32 -39 35 -48 36 -43 -49 -61 37 -50 62 -38 45 -63 -65 66 0
31 32 -39 35 -48 36 -49 61 37 -44 -50 -62 -38 45 -63 65 -66 0
-40 -34 41 52 -35 -42 -57 -36 -43 -54 -61 -37 -55 -59 -64 0
-40 -34 41 52 35 -42 53 57 -36 -43 58 61 37 -44 62 -64 0
31 -40 -34 41 52 -53 -36 -43 -54 -58 -61 37 44 -55 62 64 0
33 -40 -34 41 52 -35 -36 -43 -54 -58 -61 -37 44 59 62 64 0
31 33 -40 -34 52 -57 -36 -43 -54 -58 -61 37 44 -59 62 64 0
31 -40 -34 41 52 -35 -36 -43 -54 -58 -61 -37 55 59 62 64 0
31 33 -40 -34 52 -42 -36 -43 -54 -58 -61 -44 55 59 62 64 0
31 33 -40 -34 41 -53 -36 -43 -54 -58 -61 44 -55 59 62 64 0
33 -40 -34 41 52 -35 -36 43 58 61 -37 -44 -55 -59 -62 64 0
31 33 -40 -34 52 -57 36 43 -58 61 -37 -44 -55 -59 -62 64 0
31 -40 -34 41 52 -35 -36 54 58 61 -37 -44 -55 -59 -62 64 0
31 33 -40 -34 52 -42 -43 54 58 61 -37 -44 -55 -59 -62 64 0
31 33 -40 -34 41 -53 43 -54 58 61 -37 -44 -55 -59 -62 64 0
33 -40 41 52 35 42 -53 57 -36 -43 -58 61 -37 -44 -55 62 -64 0
33 -34 41 52 35 42 53 -57 -36 -43 -54 61 -37 -44 -59 62 -64 0
31 33 -40 52 -35 -42 -57 -43 -54 -58 -61 37 44 -55 59 62 64 0
31 -40 -34 41 -42 -53 -57 -36 -54 -58 -61 -38 -45 -56 -65 0
33 -40 -34 41 52 -35 -42 -53 -57 -36 43 58 61 -38 -63 65 0
31 -40 -34 41 52 -35 -42 -53 -57 -36 54 58 61 -38 -63 65 0
33 -40 -34 41 52 -35 42 57 -36 -43 -54 -58 61 -38 63 -65 0
33 -40 -34 41 52 -35 -42 -53 -57 36 -43 54 61 -45 -63 65 0
31 33 -40 -34 52 -35 -42 -53 -57 -43 54 58 61 -45 -63 65 0
31 33 -40 -34 52 -42 53 57 -36 -43 -54 -58 61 -45 63 -65 0
31 -40 -34 41 52 35 42 -53 -36 -43 -54 -58 61 -56 63 -65 0
31 33 -40 -34 52 -35 -42 -53 -57 36 43 -58 61 -60 -63 65 0
31 33 -40 -34 41 35 53 -57 -36 -43 -54 -58 61 -60 63 -65 0
31 -40 -34 41 52 -53 36 43 -54 61 -38 -45 -56 -60 -63 65 0
31 -40 -34 41 52 -35 -36 54 58 61 -38 -45 -56 -60 -63 65 0
31 33 -40 -34 41 42 53 -57 43 -54 -58 -61 38 45 -56 -60 -65 0
31 33 -40 41 -35 -53 -57 36 -43 54 58 61 -45 -56 -60 -63 65 0
-40 -34 41 52 -35 -53 -57 -37 -44 -55 -62 -38 -45 -60 -66 0
33 -40 -34 41 52 -35 -42 -53 -57 -37 44 59 62 -38 -63 66 0
33 -40 -34 41 52 -35 42 57 -37 -44 -55 -59 62 -38 63 -66 0
31 -40 -34 41 52 -35 53 57 -37 -44 -55 -59 62 -38 63 -66 0
33 -40 -34 41 52 35 -42 53 -37 -44 -55 -59 62 -45 63 -66 0
31 33 -40 -34 52 -42 53 57 -37 -44 -55 -59 62 -45 63 -66 0
-40 -34 41 52 35 -42 53 57 -37 -44 59 62 38 -45 63 -66 0
31 -40 -34 41 52 -35 -42 -53 -57 37 44 -55 62 -56 -63 66 0
31 33 -40 -34 41 -35 -42 -53 -57 44 -55 59 62 -56 -63 66 0
31 -40 -34 41 52 35 42 -53 -37 -44 -55 -59 62 -56 63 -66 0
31 33 -40 -34 41 42 -53 57 -37 -44 -55 -59 62 -56 63 -66 0
31 33 -40 -34 52 -35 -42 -53 -57 37 44 -59 62 -60 -63 66 0
31 33 -40 -34 52 35 42 -57 -37 -44 -55 -59 62 -60 63 -66 0
31 33 -40 -34 41 35 53 -57 -37 -44 -55 -59 62 -60 63 -66 0
31 -40 -34 41 52 -35 -37 55 59 62 -38 -45 -56 -60 -63 66 0
33 -34 41 52 35 42 53 -57 -37 -44 -59 62 -38 -45 -56 63 -66 0
-40 -34 41 52 -36 -43 -58 -37 -55 -59 -38 -45 -56 -65 -66 0
33 -40 -34 41 52 -36 -43 -54 -58 -37 44 59 64 -38 -65 66 0
31 -40 -34 41 52 -36 -43 -54 -58 -37 55 59 64 -38 -65 66 0
33 -40 -34 41 52 -36 43 58 -37 -44 -55 -59 64 -38 65 -66 0
31 -40 -34 41 52 -36 54 58 -37 -44 -55 -59 64 -38 65 -66 0
31 33 -40 -34 52 -36 -43 -54 -58 -44 55 59 64 -45 -65 66 0
33 -40 -34 41 52 36 -43 54 -37 -44 -55 -59 64 -45 65 -66 0
31 33 -40 -34 52 -43 54 58 -37 -44 -55 -59 64 -45 65 -66 0
31 -40 -34 41 52 -36 -43 -54 -58 37 44 -55 64 -56 -65 66 0
31 33 -40 -34 41 -36 -43 -54 -58 44 -55 59 64 -56 -65 66 0
31 -40 -34 41 52 36 43 -54 -37 -44 -55 -59 64 -56 65 -66 0
31 33 -40 -34 41 43 -54 58 -37 -44 -55 -59 64 -56 65 -66 0
31 33 -40 -34 52 -36 -43 -54 -58 37 44 -59 64 -60 -65 66 0
31 33 -40 -34 41 -36 -43 -54 -58 37 55 -59 64 -60 -65 66 0
31 33 -40 -34 52 36 43 -58 -37 -44 -55 -59 64 -60 65 -66 0
31 33 -40 -34 41 36 54 -58 -37 -44 -55 -59 64 -60 65 -66 0
33 -40 -34 41 52 36 -43 54 -44 64 -38 -45 -56 -60 65 -66 0
33 -34 41 52 -36 -43 -58 37 44 55 -59 64 -38 -45 -56 -65 66 0
31 33 -40 -34 41 43 54 -58 -37 44 -55 -59 45 -56 -60 65 -66 0
31 -40 41 52 -36 -54 -58 -37 -44 -55 -64 38 -45 56 60 65 66 0
31 33 -40 35 36 54 61 -37 -44 -55 -62 64 38 45 -56 -65 0
31 33 -40 35 53 -36 -43 -54 61 37 44 -55 -62 38 63 -65 0
31 33 -40 -35 -42 -53 36 43 61 37 -44 55 -64 38 -63 65 0
31 33 -40 35 36 43 61 37 -44 55 -64 -38 -45 -56 -63 65 0
31 33 -40 35 36 54 61 37 44 -55 -64 -38 -45 -56 -63 65 0
31 33 -40 35 -36 -43 -54 -61 37 55 62 64 38 45 -56 -66 0
31 33 -40 -35 -42 36 -43 54 -61 37 44 -55 62 38 -63 66 0
31 33 -40 35 42 36 -43 54 -61 -37 -44 -55 62 38 63 -66 0
31 33 -40 -35 -42 -53 36 43 -54 37 55 62 -64 38 -63 66 0
31 -35 -42 -53 36 43 54 61 -37 -55 -62 -64 38 -45 -63 66 0
33 35 42 -36 -43 54 -61 -37 -44 -55 62 -64 38 -56 63 -66 0
31 33 -40 35 -42 53 36 43 -61 -37 -44 -55 64 38 65 -66 0
31 33 -40 35 42 -53 -36 -54 -61 37 -44 55 64 38 -65 66 0
31 33 -40 35 42 -53 -36 -43 -54 37 55 -62 64 38 -65 66 0
31 33 -40 -35 -42 -53 -36 43 -61 37 55 62 -64 -63 -65 66 0
31 33 -40 -35 53 36 43 -61 -37 -44 -55 -62 64 -63 65 -66 0
31 33 -35 -42 -53 36 43 37 -44 -62 -64 38 56 63 -65 66 0
-40 35 53 -36 -43 -54 61 44 -55 -62 38 45 56 63 -65 66 0
31 -40 35 42 53 36 43 -54 -37 -44 -55 -62 64 38 63 -65 -66 0
31 33 -40 35 -42 53 -36 -54 61 -44 -55 62 -64 45 63 -65 -66 0
31 33 -40 35 -43 54 -61 -37 -44 -55 -62 64 38 56 63 65 -66 0
31 -34 -57 -36 -43 -58 -61 37 44 -59 62 64 38 -45 60 -65 0
41 42 -57 -36 -43 -58 -61 -37 -44 62 -64 38 45 60 65 -66 0
31 -34 41 35 -42 43 58 -61 -37 -44 -59 -62 64 -63 65 -66 0
31 -34 41 36 43 61 -44 59 -62 -64 -38 -45 -60 -63 65 -66 0
31 -34 41 42 -57 36 -43 -61 44 -59 62 64 -38 45 -60 -63 -65 0
-34 41 35 42 57 -36 -43 -58 61 -37 62 -64 -38 45 -60 -63 66 0
31 -34 41 -42 -57 -36 -58 -61 -37 44 59 62 64 38 -63 -65 66 0
31 -34 41 -35 -57 -43 -58 -61 -37 44 59 62 64 38 -63 -65 66 0
31 -34 41 -35 -57 36 43 -58 61 -37 -44 -62 64 60 -63 65 -66 0
31 -34 41 -35 42 -36 43 -58 -61 -37 44 62 -45 60 -63 -65 66 0
31 -34 41 35 -42 43 -58 61 -37 44 -59 -62 45 -60 -63 65 -66 0
31 -34 41 35 -42 -57 -36 43 -58 44 62 -64 45 -60 -63 -65 66 0
32 33 46 -34 52 -35 48 -53 -57 -36 -49 54 58 50 55 -62 0
32 33 46 -34 -47 52 35 -48 -57 36 54 -58 37 -50 -55 62 0
32 33 46 -34 -47 52 -35 -53 -57 36 -49 -58 61 55 -59 -62 0
32 33 46 -34 -47 52 53 -57 -49 -54 -58 -61 -37 50 -59 64 0
32 33 46 -34 -47 52 35 -48 -57 -36 -54 -58 61 55 -59 -64 0
32 33 46 -34 52 -35 -48 53 57 49 54 -37 50 -55 -59 -64 0
32 33 -34 -47 52 35 -48 53 -57 54 -58 -37 50 -55 -59 -64 0
32 33 46 -34 -47 52 -48 53 57 -36 -54 -58 61 55 62 -64 0
32 33 46 -34 -47 52 53 -57 36 -49 -58 -37 -55 -59 -62 64 0
32 33 46 -34 -47 52 35 -48 -57 54 -58 -37 -55 -59 62 -64 0
32 33 46 -34 -47 52 53 -49 -54 -58 -61 -37 55 59 62 64 0
32 33 46 -34 -47 52 53 -49 54 58 61 -37 -55 -59 -62 64 0
33 46 -34 52 35 53 -57 -36 -49 -54 -58 50 55 59 -62 64 0
32 33 46 -34 -47 52 -35 -53 -57 54 -61 -50 55 59 62 64 0
32 33 46 -34 -47 52 -35 53 57 54 61 -50 -55 -59 62 -64 0
32 33 46 -34 -47 52 53 -36 -54 -58 -61 -50 55 59 62 64 0
32 33 46 -34 -47 52 53 -36 54 58 61 -50 -55 -59 -62 64 0
32 33 46 -34 -47 52 53 -57 -36 54 -58 -61 -37 50 -55 62 -64 0
32 33 46 -34 -47 52 53 -57 -36 49 -54 61 -37 55 -59 -62 -64 0
32 33 46 -34 -47 52 -35 -53 -57 36 -49 -58 61 56 -60 -63 0
32 33 46 -34 -47 52 -48 -53 -57 -36 49 -58 61 56 -60 -63 0
32 33 -34 -47 52 35 -48 53 -57 -36 49 -54 -58 56 -60 -65 0
32 33 46 -34 -47 35 -57 36 -49 -54 -58 -61 51 -56 60 -65 0
32 33 46 -47 52 35 -48 -53 -57 -36 -54 58 -61 38 -63 -65 0
32 33 46 -34 -47 52 -48 -53 -57 -36 54 58 61 56 -63 65 0
32 33 46 -34 -47 52 -48 53 57 -36 -54 -58 61 56 63 -65 0
32 33 46 -34 -47 52 -35 53 57 -49 -54 -58 61 56 63 -65 0
32 33 46 -34 -47 52 53 -49 54 58 61 -38 -56 -60 -63 65 0
32 33 46 -47 52 35 36 -49 -54 -58 -61 -38 -56 60 -63 -65 0
32 33 -34 -47 52 -35 48 -53 -57 55 -59 -62 38 -51 56 -60 0
32 33 46 -34 -47 52 -35 48 -53 -37 55 59 -62 51 56 -63 0
32 33 46 -34 -47 52 -35 -53 -57 55 -59 -62 38 -51 -60 63 0
32 33 46 -34 -47 52 53 -57 -37 -55 -59 -62 38 -51 -60 66 0
32 33 -34 -47 52 35 -48 53 -57 -37 50 -55 -59 56 -60 -66 0
32 33 46 -34 -47 52 35 -48 -57 -37 -55 -59 62 56 -60 -66 0
32 33 46 -47 52 -35 -53 57 37 -50 -55 -59 -62 38 -63 -66 0
32 33 46 -34 -47 52 -48 -53 -57 -37 55 59 62 56 -63 66 0
32 33 46 -34 -47 52 -35 -53 -57 -50 55 59 62 56 -63 66 0
32 33 46 -34 -47 52 -35 53 57 -50 -55 -59 62 56 63 -66 0
33 46 -34 -47 52 48 53 -57 -37 -50 -55 -59 51 -60 -63 66 0
32 33 46 52 -35 -48 53 -50 55 59 62 -38 -56 -60 -63 66 0
33 46 -34 52 35 53 -57 -37 -50 -55 -59 51 56 60 -63 66 0
33 46 -47 52 -35 -48 -53 -57 -37 50 -59 62 38 51 56 -63 66 0
32 46 -47 52 35 -48 53 57 -37 -50 -59 62 -38 -56 -60 63 -66 0
32 33 46 -34 -47 52 -35 48 -53 55 -59 62 -38 56 -60 -63 -66 0
32 46 -47 52 -35 -48 -57 37 -50 55 59 62 -38 -56 -60 -63 66 0
32 33 46 -34 -47 52 -36 49 -54 -37 55 59 -64 51 56 -65 0
32 33 46 -34 -47 52 -36 -54 -58 37 -50 -59 64 56 -60 -65 0
32 33 46 -34 -47 52 -49 -54 -58 -37 55 59 64 56 -65 66 0
32 33 46 -34 -47 52 -49 54 58 -37 -55 -59 64 56 65 -66 0
32 33 46 -34 -47 52 -36 -54 -58 -50 55 59 64 56 -65 66 0
32 33 46 -34 -47 52 -36 54 58 -50 -55 -59 64 56 65 -66 0
33 46 -34 -47 52 -36 -49 -54 -58 50 55 -59 51 -60 65 -66 0
32 33 46 -34 -47 52 36 -49 -58 55 -59 -38 -56 -60 65 -66 0
32 33 46 -47 52 36 -37 -55 59 -64 38 -51 -56 -60 -65 -66 0
32 33 46 -34 52 49 54 58 37 -50 -55 -59 -64 -38 -51 65 -66 0
32 33 46 -34 -47 49 54 58 37 -50 -55 -59 -64 -38 56 65 -66 0
33 46 -34 -47 52 36 54 -58 -37 -50 55 -59 -38 51 -56 65 -66 0
32 33 46 -34 52 -36 -49 54 -58 -37 50 -55 -59 56 -60 -65 66 0
32 33 46 -47 52 36 54 58 -37 -50 64 -38 51 -56 -60 -65 -66 0
32 33 46 -34 -47 36 54 58 -50 55 64 -38 51 -56 -60 -65 -66 0
32 33 46 -47 52 -36 -49 37 55 59 64 -38 51 -56 -60 -65 -66 0
32 33 46 53 -49 54 61 50 55 -62 -64 -38 51 -56 -63 -66 0
32 33 46 -35 -48 53 -36 -54 -61 55 -64 -51 56 63 65 66 0
32 33 46 35 -36 -49 -61 50 -55 64 38 -51 -56 -63 -65 -66 0
-34 -47 -35 48 -49 -58 -61 -37 -50 -59 62 -38 -60 -63 -65 0
-34 -47 35 -48 -49 -58 -61 -37 -50 -59 62 -38 -60 -63 -65 0
-34 -47 -35 -57 36 -49 -61 -37 -50 -59 64 -51 -60 -63 -65 0
-34 -47 -35 48 -36 -49 -58 61 -37 -59 -62 -51 -60 -63 -66 0
-34 -47 -35 -57 -36 -49 -58 -37 50 -62 64 -51 -60 -63 -66 0
-34 -47 -35 -48 -57 -36 -49 -61 -50 -59 64 -38 -60 65 -66 0
-34 -47 -48 -36 -49 -58 -61 -37 -50 -59 62 -38 -63 -65 66 0
-34 -47 -48 -36 -49 -58 61 -37 -50 -59 -62 -38 -63 65 -66 0
-34 -47 -35 -48 -57 -49 -61 -37 -50 -59 64 -38 -63 -65 66 0
-34 -47 -35 -36 -49 -58 -61 -37 -50 -59 62 -51 -63 -65 66 0
-34 -47 -35 -48 -57 -36 -61 -37 -50 -59 64 -51 -63 -65 66 0
-34 -47 -35 -57 -49 -58 -61 -37 -50 -59 -38 51 -63 65 -66 0
-34 -47 -48 -57 -36 -49 -58 -37 -59 -62 38 -51 -63 -65 66 0
32 -34 -47 -35 -36 -58 -61 37 -50 -62 -51 -60 -63 -65 -66 0
32 -34 -47 -35 36 -49 -61 -37 -59 -62 -51 -60 -63 -65 -66 0
32 -34 -47 -57 36 49 58 61 37 -50 62 -64 -51 -60 -63 65 -66 0
33 -34 52 -35 53 57 -54 -58 61 37 55 -59 -64 56 63 -65 0
33 -34 52 53 54 58 61 37 55 -59 -64 -38 -56 -60 -63 65 0
33 -34 52 35 53 -57 -36 54 58 -37 -55 62 -64 56 63 -66 0
33 -34 52 -35 53 57 36 54 -61 -37 -55 -59 64 56 65 -66 0
33 -34 52 35 53 -57 -54 -58 -61 -37 55 59 64 56 -65 66 0
33 -34 52 35 53 -57 -36 -54 -58 55 59 -62 64 56 -65 66 0
33 -34 52 35 53 -57 -36 54 58 -55 -59 -62 64 56 65 -66 0
52 35 53 57 -36 -54 -61 -37 -55 -59 62 -64 56 -60 65 -66 0
33 -34 52 -35 -53 -57 -54 58 -61 37 55 62 -64 -63 -65 66 0
52 53 -57 -36 -54 -58 -61 37 55 59 64 -38 -56 63 -65 -66 0
52 53 -57 36 54 58 -37 -55 -59 -62 64 -38 -56 63 -65 -66 0
33 -35 53 -36 -54 -58 -61 37 55 59 64 -56 -60 63 -65 -66 0
33 -35 53 36 54 58 -37 -55 -59 -62 64 -56 -60 63 -65 -66 0
52 -53 57 36 54 58 -37 -59 62 -64 -38 -56 -60 -63 65 -66 0
33 52 -35 -53 -57 -36 54 -61 37 -59 62 -64 38 56 60 -63 66 0
33 52 35 53 57 36 54 -58 -37 -55 -59 -62 64 -38 63 -65 -66 0
52 35 -53 57 -36 -54 -58 37 55 59 -62 64 -38 -56 -63 -65 66 0
33 -34 52 -35 -53 36 54 -58 61 -37 -59 -62 64 60 -63 65 -66 0
33 52 -35 -53 -54 58 -61 37 -55 59 62 64 -38 -60 -63 -65 66 0
33 -34 52 -35 57 -36 -54 -58 61 55 -62 -64 56 60 63 -65 66 0
-39 -40 -47 52 -48 -53 -57 -43 -49 -54 -61 -44 -50 55 -59 0
-39 -40 -47 52 -42 -53 -57 -43 -49 -58 -61 -44 -50 -55 59 0
-39 -40 -47 52 -42 -48 -57 -43 -54 58 -61 -44 -50 -55 -59 0
-39 -40 -47 52 -42 -53 -57 -43 -49 -54 58 -44 -50 -59 -62 0
-39 -40 -47 52 -42 -48 -57 -43 -49 -54 58 -44 -55 -59 -62 0
-39 -40 -47 52 -42 -48 -53 -43 -49 54 -58 -50 -55 -59 -62 0
-39 -40 -47 -53 -57 -43 -49 54 -58 61 -44 -50 -55 -59 -62 0
-39 -40 -47 52 -42 -48 53 -57 -49 -54 -58 -44 -50 -55 -64 0
-39 -40 -47 52 -42 -48 -53 57 -43 -49 -58 -44 -55 -59 -64 0
-39 -40 -47 52 -42 -48 53 -57 -43 -49 -54 -50 -55 -59 -64 0
-39 -40 41 -47 52 -53 -57 -49 -58 -61 -44 -50 -55 -62 -64 0
-40 46 41 -47 42 48 53 -57 43 -49 -54 -58 61 44 -59 62 0
-39 -40 46 41 -47 -48 53 -57 -43 -49 54 -44 -50 55 59 62 0
-39 46 41 -47 52 -48 53 -43 -49 54 58 44 -50 -55 -59 -62 0
-39 -40 46 41 -47 -42 -48 53 -49 54 -58 -44 -50 55 59 64 0
-40 46 -47 52 42 48 53 -57 -43 54 -58 61 44 -59 62 -64 0
-39 -40 46 -47 52 42 48 53 -57 -43 -49 54 -58 44 55 -59 -64 0
-39 -40 41 -47 52 -42 48 -53 57 -43 -49 -54 58 50 -55 59 64 0
-39 -40 46 41 -47 52 -42 -48 53 -49 54 -58 -61 44 55 62 -64 0
-39 -40 46 41 -47 52 42 53 -43 -49 54 61 -50 55 -59 -62 -64 0
-39 41 -47 52 42 48 53 -57 -43 -49 -54 61 -50 55 -59 62 -64 0
-39 -40 -47 52 -42 -48 -53 -43 -49 54 -58 -51 -56 -60 -63 0
-39 -40 46 41 -47 -42 -48 53 57 -49 54 -58 61 -45 -51 56 0
-39 -40 46 41 52 -42 57 -43 -49 54 58 -45 51 -56 -60 -63 0
-39 -40 46 41 52 -42 -48 53 57 -43 58 -45 51 -56 -60 -65 0
-39 -40 46 41 -47 52 -42 -53 57 -43 -49 58 -61 51 60 -63 65 0
-39 -40 46 41 -47 52 -42 -48 57 49 58 61 -45 -56 60 -63 -65 0
-39 -40 -47 52 -48 53 -57 -44 -50 -55 -59 -45 -51 -56 -63 0
-39 -40 -47 52 -42 -48 -53 -44 -50 -55 -59 -51 56 -60 -63 0
-39 -40 -47 -42 -48 -53 -57 -55 -59 -62 -45 51 -56 60 -66 0
-39 -40 46 41 -47 -42 -48 53 57 -50 55 -59 62 -45 -51 56 0
-39 46 41 -47 52 -42 -48 53 57 44 -50 -55 -59 -51 56 -66 0
-39 -40 41 -47 52 -42 -48 53 57 -50 59 45 51 -56 60 66 0
-40 41 52 -42 -48 -53 -57 50 55 59 62 45 -51 -60 -63 -66 0
-39 -40 46 41 -47 52 -48 53 -57 -44 -50 55 -62 45 56 -63 66 0
-39 -40 46 41 -47 52 -42 -53 57 -44 -50 59 -62 51 60 -63 66 0
-39 -40 -47 52 -43 -49 -54 -58 -44 -50 -55 -51 56 -60 -66 0
-39 -40 -47 -43 -49 -54 -58 -44 -50 -55 59 -56 -60 -65 66 0
-39 -40 46 41 -47 -43 -49 54 58 -50 55 -59 64 -45 -51 56 0
-39 46 41 -47 52 -49 54 44 -50 -55 -59 -64 -45 -51 56 60 0
-39 -40 46 41 52 -43 49 -54 -58 -44 -50 55 59 -45 60 -65 0
-39 -40 46 41 -47 -49 54 -58 -44 -50 55 -45 -51 56 60 65 0
-39 -40 41 -47 52 -43 -49 54 58 -50 59 45 51 -56 60 66 0
-40 -47 52 -43 -49 -54 -58 44 50 -59 64 45 56 -60 -65 66 0
-39 -40 46 41 -47 52 -43 -49 54 -50 55 -59 -64 45 56 65 -66 0
-39 -40 41 -47 52 -43 -49 -54 44 50 -55 59 64 -51 56 -65 66 0
-39 -40 46 41 -47 52 -49 54 -58 44 55 -64 -45 -51 56 -65 66 0
-39 -40 46 41 -47 52 43 54 -50 55 -59 -64 -45 -51 56 65 -66 0
-39 -40 46 -47 52 43 49 54 -58 -44 -50 -59 64 -45 60 65 -66 0
-39 -40 46 41 -47 52 49 58 -44 -55 59 -64 -45 -51 60 65 -66 0
-39 -40 46 41 -47 52 -43 -49 58 50 59 64 -45 -56 60 -65 -66 0
-39 -40 46 52 43 49 -54 58 -44 -50 -59 64 -45 -56 60 65 -66 0
-39 -40 -42 -48 -49 -54 61 -44 -55 -62 64 -45 -51 -56 -65 0
-39 -40 48 -53 -43 -54 -61 -44 -50 -55 62 -45 -51 -63 -65 0
-39 -40 48 -53 -43 -49 -61 -44 -50 -55 62 -45 -56 -63 -65 0
-39 -40 -42 -53 -43 -49 -61 -50 55 -62 -64 -45 -51 -56 66 0
-39 -40 -48 53 -43 -49 -54 61 -44 -55 -62 -45 -51 -63 -66 0
-39 -40 -48 53 -43 -49 54 -61 -44 -50 -55 -51 -56 -63 -66 0
-39 -40 -42 -48 -53 -54 -61 -44 -50 -55 64 -51 -63 -65 66 0
-39 -40 46 -42 -53 -49 54 -55 -62 -64 -45 -51 -63 -65 -66 0
-39 -40 -42 -53 -43 -49 -54 -44 -50 -62 -51 56 -63 65 -66 0
-39 -40 -42 -53 -43 -49 -54 -44 -50 -62 51 -56 -63 65 -66 0
-39 -47 -42 -48 -43 58 -61 -44 -50 -59 64 -51 -60 -63 -65 0
-39 -47 -42 -48 -49 -58 -61 44 -59 -62 -64 -45 -51 -60 66 0
-39 -47 -42 -48 -49 -58 -61 44 -59 62 -64 -45 -51 -60 -66 0
-39 -47 42 -57 -43 -49 -58 61 -50 -59 -62 -45 -51 -63 -66 0
-39 -47 -57 -43 -49 -58 -61 -44 -50 -59 62 -45 -63 -65 66 0
-39 -47 -42 -48 -57 -43 -49 -58 -44 -62 64 -60 -63 65 -66 0
-39 -47 -48 -57 -43 -49 -61 -44 -50 -59 45 -60 -63 -65 66 0
-39 -47 -42 -48 -49 -58 -61 -44 -50 -59 -45 60 -63 65 -66 0
-39 -47 -42 -48 -43 -49 -58 -50 -59 -62 -45 -60 63 -65 66 0
-40 52 -42 53 57 43 54 -58 -44 -55 -59 62 -64 -45 63 -66 0
-40 52 42 53 -57 -43 -54 -58 -61 -44 55 59 64 -45 -65 66 0
-40 41 52 -42 -53 -57 54 -58 -61 44 59 62 -64 -63 -65 66 0
-40 41 52 42 -57 -43 -54 -58 -61 55 59 -62 64 -63 -65 66 0
-40 52 -42 43 54 -58 -44 55 59 62 -45 -56 -60 -63 -65 66 0
41 42 53 57 -54 -58 -61 -44 59 64 -45 -56 -60 63 -65 -66 0
-40 41 52 -42 57 54 -58 -61 -44 59 62 64 -45 -56 60 -63 -65 0
41 52 -42 53 57 -43 -54 -58 61 -55 -62 -64 45 56 60 -65 66 0
-40 41 52 42 57 -43 -54 -58 -61 44 -55 62 64 60 63 -65 -66 0
-40 41 52 57 -43 -54 -58 -61 44 -55 -62 64 45 60 63 -65 66 0
-47 52 -48 -53 -57 -49 54 58 61 50 -55 59 -62 -51 -63 65 0
-47 52 48 -53 57 -49 54 58 -50 -55 -59 -62 64 -51 65 -66 0
46 -47 52 -48 -53 -57 -54 58 -61 50 55 62 -64 -63 -65 66 0
46 -47 52 -53 57 -49 -54 -58 -61 50 55 -62 64 -63 -65 66 0
46 48 -57 49 -54 -58 61 -50 -55 -59 -62 64 51 56 60 63 -66 0
46 48 -53 -57 49 54 58 -50 -55 -59 62 -64 51 -60 63 65 -66 0
-12 -13 31 15 32 -39 -18 27 35 42 0
-12 -13 14 31 32 -39 -20 29 37 50 0
-12 -13 14 23 24 -39 -21 30 38 51 0
-12 -13 14 31 33 -40 -18 27 35 53 0
-13 14 31 -25 33 -40 18 27 42 -53 0
-12 -13 14 31 33 -40 -19 28 36 54 0
-13 14 31 -25 33 -40 19 28 43 -54 0
-12 -13 14 31 33 -40 -20 29 37 55 0
-13 14 31 -25 33 -40 20 29 44 -55 0
-12 -13 14 31 33 -40 -21 30 38 56 0
-13 14 31 -25 33 -40 21 30 45 -56 0
-13 22 14 23 31 26 41 -18 27 35 -57 0
-13 14 23 31 17 26 41 19 -28 -36 58 0
-13 22 14 23 31 26 41 -20 29 37 -59 0
-13 14 23 31 17 26 41 20 -29 -37 59 0
-13 22 14 23 31 26 41 -21 30 38 -60 0
-13 14 23 31 17 26 41 21 -30 -38 60 0
-12 -13 14 23 31 -18 27 42 -19 28 -61 0
-12 -13 14 23 31 -18 35 42 -19 36 -61 0
-12 -13 14 23 31 -18 27 -19 28 43 -61 0
-12 14 23 31 18 35 42 -19 28 43 -61 0
-13 14 23 31 -18 35 42 19 28 43 -61 0
-12 14 23 31 -18 27 42 19 36 43 -61 0
-13 14 23 31 18 27 42 -19 36 43 -61 0
-12 -13 22 14 23 31 -18 35 -42 -19 28 36 61 0
-12 -13 14 23 31 -18 35 42 -20 37 -62 0
-12 -13 14 23 31 -18 27 -20 29 44 -62 0
-12 14 23 31 18 35 42 -20 29 44 -62 0
-13 14 23 31 -18 35 42 20 29 44 -62 0
-12 -13 14 23 31 -18 35 -20 37 44 -62 0
-12 -13 22 14 23 31 -18 27 -42 -20 29 37 62 0
-12 -13 22 14 23 31 -18 35 -42 -20 29 37 62 0
-12 -13 14 23 31 -18 27 42 -21 30 -63 0
-12 -13 14 23 31 -18 35 42 -21 38 -63 0
-12 14 23 31 18 35 42 -21 30 45 -63 0
-13 14 23 31 -18 35 42 21 30 45 -63 0
-12 -13 22 14 23 31 -18 35 -42 -21 30 38 63 0
-12 -13 14 23 31 -19 28 43 -20 29 -64 0
-12 -13 14 23 31 -19 36 43 -20 37 -64 0
-12 -13 14 23 31 -19 28 -20 29 44 -64 0
-12 14 23 31 19 36 43 -20 29 44 -64 0
-13 14 23 31 -19 36 43 20 29 44 -64 0
-12 -13 14 23 31 -19 36 -20 37 44 -64 0
-12 14 23 31 -19 28 43 20 37 44 -64 0
-13 14 23 31 19 28 43 -20 37 44 -64 0
-13 14 23 31 19 -36 43 29 37 44 -64 0
-12 -13 22 14 23 31 -19 28 -43 -20 29 37 64 0
-12 -13 14 23 31 -19 28 43 -21 30 -65 0
-12 -13 14 23 31 -19 36 43 -21 38 -65 0
-13 14 23 31 -19 36 43 21 30 45 -65 0
-12 -13 14 23 31 -20 37 44 -21 38 -66 0
-12 14 23 31 20 37 44 -21 30 45 -66 0
-13 14 23 31 -20 37 44 21 30 45 -66 0
-12 -13 14 23 31 -20 37 -21 38 45 -66 0
-13 14 23 31 20 29 44 -21 38 45 -66 0
-12 -13 23 20 37 -44 -21 30 38 45 66 0
-12 -13 22 14 23 31 -20 29 -44 -21 30 38 66 0
-12 -13 22 14 23 31 -20 37 -44 -21 30 38 66 0
-12 22 15 24 32 33 46 -18 27 35 -53 0
-12 15 24 32 16 33 46 18 -27 -35 53 0
-12 22 15 24 32 33 46 -19 28 36 -54 0
-12 15 24 32 16 33 46 19 -28 -36 54 0
-12 22 15 24 32 33 46 -20 29 37 -55 0
-12 15 24 32 16 33 46 20 -29 -37 55 0
-12 22 15 24 32 33 46 -21 30 38 -56 0
-12 15 24 32 16 33 46 21 -30 -38 56 0
-12 -13 15 24 26 -47 -18 27 35 57 0
-12 15 24 26 -34 -47 18 35 48 -57 0
-12 -13 15 24 26 -47 -19 28 36 58 0
-12 15 24 26 -34 -47 19 36 49 -58 0
-12 -13 15 24 26 -47 -20 29 37 59 0
-12 15 24 26 -34 -47 20 37 50 -59 0
-12 -13 15 24 26 -47 -21 30 38 60 0
-12 -13 15 24 32 -18 27 48 -19 28 -61 0
-12 -13 15 24 32 -18 35 48 -19 36 -61 0
-12 -13 15 24 32 -18 27 -19 28 49 -61 0
-12 15 24 32 18 35 48 -19 28 49 -61 0
-13 15 24 32 -18 35 48 19 28 49 -61 0
-12 -13 15 24 32 -18 35 -19 36 49 -61 0
-12 15 24 32 -18 27 48 19 36 49 -61 0
-12 -13 22 15 24 32 -18 27 -48 -19 28 36 61 0
-12 -13 22 15 24 32 -18 35 -48 -19 28 36 61 0
-12 -13 15 24 32 -18 35 48 -20 37 -62 0
-12 -13 15 24 32 -18 27 -20 29 50 -62 0
-12 15 24 32 18 35 48 -20 29 50 -62 0
-12 -13 15 24 32 -18 35 -20 37 50 -62 0
-12 15 24 32 -18 27 48 20 37 50 -62 0
-12 -13 22 15 24 32 -18 35 -48 -20 29 37 62 0
-12 -13 15 24 32 -18 27 48 -21 30 -63 0
-12 -13 15 24 32 -18 35 48 -21 38 -63 0
-12 -13 15 24 32 -18 27 -21 30 51 -63 0
-13 15 24 32 -18 35 48 21 30 51 -63 0
-12 15 24 32 -18 27 48 21 38 51 -63 0
-12 -13 22 15 24 32 -18 35 -48 -21 30 38 63 0
-12 -13 22 15 24 32 -18 27 35 -21 38 -51 63 0
-12 15 24 32 19 36 49 -20 29 50 -64 0
-13 15 24 32 -19 36 49 20 29 50 -64 0
-12 15 24 32 28 36 49 20 -29 50 -64 0
-12 -13 15 24 32 -19 36 -20 37 50 -64 0
-12 15 24 32 -19 28 49 20 37 50 -64 0
-12 -13 22 15 24 32 -19 36 -49 -20 29 37 64 0
-12 -13 15 24 32 -19 28 49 -21 30 -65 0
-12 -13 15 24 32 -19 36 49 -21 38 -65 0
-12 -13 15 24 32 -19 28 -21 30 51 -65 0
-12 15 24 32 19 36 49 -21 30 51 -65 0
-13 15 24 32 -19 36 49 21 30 51 -65 0
-12 -13 15 24 32 -19 36 -21 38 51 -65 0
-12 15 24 32 -19 28 49 21 38 51 -65 0
-12 15 24 32 19 -28 49 30 38 51 -65 0
-12 -13 15 24 32 -20 29 50 -21 30 -66 0
-12 -13 15 24 32 -20 37 50 -21 38 -66 0
-12 -13 15 24 32 -20 29 -21 30 51 -66 0
-12 15 24 32 20 37 50 -21 30 51 -66 0
-12 15 24 32 -20 29 50 21 38 51 -66 0
-13 15 24 32 20 29 50 -21 38 51 -66 0
-13 15 24 32 29 37 50 21 -38 51 -66 0
-13 15 24 32 20 -37 50 30 38 51 -66 0
-12 -25 33 26 -34 52 18 -27 35 53 0
-13 -25 33 26 -34 52 18 27 -35 57 0
-12 -25 33 26 -34 52 19 -28 36 54 0
-13 -25 33 26 -34 52 19 28 -36 58 0
-12 -25 33 26 -34 52 20 -29 37 55 0
-13 -25 33 26 -34 52 20 29 -37 59 0
-12 -25 33 26 -34 52 21 -30 38 56 0
-13 -25 33 26 -34 52 21 30 -38 60 0
-12 -13 -25 33 -27 35 -53 -19 -28 -36 -61 0
-12 -13 -25 33 -18 -35 53 -19 -28 -54 -61 0
-12 -13 -25 33 -18 -27 -53 -19 -36 54 -61 0
-12 -13 -25 33 -18 -27 -35 -28 36 -54 -61 0
-12 -13 -25 33 18 27 -35 53 19 -28 36 61 0
-12 -13 -25 33 18 27 35 -53 -19 28 54 61 0
-12 -13 -25 33 18 -27 35 19 28 -36 54 61 0
-12 -13 33 18 27 35 53 -19 28 -36 54 -61 0
-12 -13 -25 33 -27 35 -53 -20 -29 -37 -62 0
-12 -13 -25 33 -18 -35 53 -20 -29 -55 -62 0
-12 -13 -25 33 -18 -27 -53 -20 -37 55 -62 0
-12 -13 -25 33 -18 -27 -35 -29 37 -55 -62 0
-12 -13 -25 33 18 27 -35 53 20 -29 37 62 0
-12 -13 -25 33 18 27 35 -53 -20 29 55 62 0
-12 -13 -25 33 18 -27 35 20 29 -37 55 62 0
-12 -13 -25 33 -18 27 53 20 29 37 -55 62 0
-12 -13 -25 33 -27 35 -53 -21 -30 -38 -63 0
-12 -13 -25 33 -18 -35 53 -21 -30 -56 -63 0
-12 -13 -25 33 -18 -27 -53 -21 -38 56 -63 0
-12 -13 -25 33 -18 -27 -35 -30 38 -56 -63 0
-12 -13 33 -18 27 -35 53 21 30 38 56 -63 0
-12 -13 -25 33 -28 36 -54 -20 -29 -37 -64 0
-12 -13 -25 33 -19 -36 54 -20 -29 -55 -64 0
-12 -13 -25 33 -19 -28 -54 -20 -37 55 -64 0
-12 -13 -25 33 -19 -28 -36 -29 37 -55 -64 0
-12 -13 -25 33 19 28 -36 54 20 -29 37 64 0
-12 -13 -25 33 19 28 36 -54 -20 29 55 64 0
-12 -13 -25 33 19 -28 36 20 29 -37 55 64 0
-12 -13 -25 33 -19 28 54 20 29 37 -55 64 0
-12 -25 33 19 28 36 54 20 -29 37 -55 -64 0
-12 -13 -25 33 -28 36 -54 -21 -30 -38 -65 0
-12 -25 33 19 -28 36 54 21 30 -38 65 0
-12 -13 -25 33 -19 -36 54 -21 -30 -56 -65 0
-12 -13 -25 33 -19 -28 -54 -21 -38 56 -65 0
-12 -13 -25 33 -19 -28 -36 -30 38 -56 -65 0
-12 -13 -25 33 -29 37 -55 -21 -30 -38 -66 0
-12 -13 -25 33 -20 -37 55 -21 -30 -56 -66 0
-12 -13 -25 33 -20 -29 -55 -21 -38 56 -66 0
-12 -13 -25 33 -20 -29 -37 -30 38 -56 -66 0
-12 -13 33 20 29 -55 -21 30 38 56 66 0
-12 -13 -25 33 20 29 -37 55 21 -30 38 66 0
-12 -13 26 -34 27 -35 -57 -19 -28 -36 -61 0
-12 -13 26 -34 -18 -35 -57 -19 -28 58 -61 0
-12 -13 26 -34 -18 -27 57 -19 -36 -58 -61 0
-12 -13 26 -34 -18 -27 -35 28 -36 -58 -61 0
-12 -13 26 -34 18 -27 35 57 19 28 -36 61 0
-12 -13 26 -34 18 27 35 -57 -19 36 58 61 0
-12 -13 26 -34 18 27 -35 19 -28 36 58 61 0
-12 -13 26 -34 -18 35 57 19 28 36 -58 61 0
-12 -13 26 -34 27 -35 -57 -20 -29 -37 -62 0
-12 -13 26 -34 -18 -35 -57 -20 -29 59 -62 0
-12 -13 26 -34 -18 -27 57 -20 -37 -59 -62 0
-12 -13 26 -34 -18 -27 -35 29 -37 -59 -62 0
-12 -13 26 -34 18 -27 35 57 20 29 -37 62 0
-12 -13 26 -34 18 27 35 -57 -20 37 59 62 0
-12 -13 26 -34 18 27 -35 20 -29 37 59 62 0
-12 -13 26 -34 -18 35 57 20 29 37 -59 62 0
-12 -13 26 -18 -27 35 57 20 29 37 59 -62 0
-12 -13 26 -34 27 -35 -57 -21 -30 -38 -63 0
-12 -13 26 -34 -18 -35 -57 -21 -30 60 -63 0
-12 -13 26 -34 -18 -27 57 -21 -38 -60 -63 0
-12 -13 26 -34 -18 -27 -35 30 -38 -60 -63 0
-12 -13 26 -34 18 27 -35 21 -30 38 60 63 0
-12 -13 26 -34 -18 35 57 21 30 38 -60 63 0
-12 -13 26 -34 28 -36 -58 -20 -29 -37 -64 0
-12 -13 26 -34 -19 -36 -58 -20 -29 59 -64 0
-12 -13 26 -34 -19 -28 58 -20 -37 -59 -64 0
-12 -13 26 -34 -19 -28 -36 29 -37 -59 -64 0
-12 -13 26 -34 19 -28 36 58 20 29 -37 64 0
-12 -13 26 -34 19 28 36 -58 -20 37 59 64 0
-12 -13 26 -34 19 28 -36 20 -29 37 59 64 0
-12 -13 26 -34 -19 36 58 20 29 37 -59 64 0
-12 -13 26 -34 28 -36 -58 -21 -30 -38 -65 0
-12 -13 26 -34 -19 -36 -58 -21 -30 60 -65 0
-12 -13 26 -34 -19 -28 58 -21 -38 -60 -65 0
-12 -13 26 -34 -19 -28 -36 30 -38 -60 -65 0
-13 26 -34 19 -28 36 21 30 -38 60 65 0
-12 -13 26 -34 29 -37 -59 -21 -30 -38 -66 0
-12 -13 26 -34 -20 -37 -59 -21 -30 60 -66 0
-12 -13 26 -34 -20 -29 59 -21 -38 -60 -66 0
-12 -13 26 -34 -20 -29 -37 30 -38 -60 -66 0
-13 26 -34 20 -29 37 21 30 -38 60 66 0
-12 -13 -18 -27 -35 -28 -61 -37 -62 -64 0
-12 -13 -35 -28 -61 -20 -29 -37 -62 -64 0
-12 -13 -27 35 -19 -36 -61 -20 -29 -62 -64 0
-12 -13 27 -35 -19 -36 -61 -20 -29 -62 -64 0
-12 -13 -18 -35 -28 36 -61 -20 -29 -62 -64 0
-12 -13 -18 -35 28 -36 -61 -20 -29 -62 -64 0
-12 -13 -27 35 -19 -28 -61 -20 -37 -62 -64 0
-12 -13 -18 -27 -28 36 -61 -20 -37 -62 -64 0
-12 -13 -18 -27 28 -36 -61 -20 -37 -62 -64 0
-12 -13 -18 -27 -19 -36 -61 -29 37 -62 -64 0
-12 -13 -18 -27 -19 -36 -61 29 -37 -62 -64 0
-12 -13 18 27 -35 -19 -28 36 61 -29 37 62 0
-12 -13 18 -27 35 28 -36 61 -20 29 -37 62 0
-12 -13 -18 27 -35 19 -28 36 61 29 -37 64 0
-12 -13 27 -35 19 -28 36 61 -20 29 -37 64 0
-12 -13 18 27 -19 -28 36 -61 -20 37 62 -64 0
-12 -13 -18 -27 35 -28 36 20 29 -37 62 64 0
-12 -13 -27 35 -19 -28 36 20 29 -37 62 64 0
-12 -13 18 27 -19 36 61 -20 -29 37 -62 -64 0
-12 -13 -18 -27 35 -19 28 -36 61 20 -29 37 62 0
-12 -13 -18 27 -35 19 28 -36 61 -20 -29 37 62 0
-12 -13 18 -27 35 -19 -28 36 61 20 29 -37 62 0
-12 -13 -18 27 -35 -19 -28 36 61 20 29 -37 62 0
-12 -13 -18 -27 35 19 -28 36 61 -20 29 -37 62 0
-12 -13 18 27 -35 19 -28 36 61 -20 29 -37 62 0
-12 -13 -18 27 -35 -19 -28 36 61 20 -29 37 64 0
-12 -13 18 27 -35 19 -28 36 61 -20 -29 37 64 0
-12 -13 18 27 -35 -19 28 -36 61 -20 -29 37 64 0
-12 -13 -18 -27 35 -19 28 -36 61 20 29 -37 64 0
-12 -13 18 -27 35 -19 -28 36 61 -20 29 -37 64 0
-12 -13 -18 27 -35 19 -28 36 -20 -29 37 62 64 0
-12 -13 18 -27 35 -19 28 -36 -20 -29 37 62 64 0
-12 -13 18 27 -35 -19 -28 36 -20 29 -37 62 64 0
-12 -13 -18 -27 35 19 28 -36 -20 29 -37 62 64 0
-12 -13 -27 35 -19 -28 36 -61 20 29 37 -62 64 0
-12 -13 -35 -19 -28 -36 -61 -30 -63 -65 0
-12 -13 -18 -27 -35 -28 -61 -38 -63 -65 0
-12 -13 -27 -36 -61 -21 -30 -38 -63 -65 0
-12 -13 -18 -35 -28 36 -61 -21 -30 -63 -65 0
-12 -13 -18 -35 28 -36 -61 -21 -30 -63 -65 0
-12 -13 27 -35 -19 -28 -61 -21 -38 -63 -65 0
-12 -13 -18 -35 -19 -28 -61 30 -38 -63 -65 0
-12 -13 -18 -27 -19 -36 -61 30 -38 -63 -65 0
-12 -13 -18 -27 35 -19 28 -36 61 21 30 -38 65 0
-12 -13 18 27 -35 -19 -28 36 -21 30 -38 63 65 0
-12 -13 -18 -27 -35 -37 -62 -30 -63 -66 0
-12 -13 -27 35 -20 -37 -62 -21 -30 -63 -66 0
-12 -13 27 -35 -20 -37 -62 -21 -30 -63 -66 0
-12 -13 -18 -35 -29 37 -62 -21 -30 -63 -66 0
-12 -13 27 -35 -20 -29 -62 -21 -38 -63 -66 0
-12 -13 -18 -27 -29 37 -62 -21 -38 -63 -66 0
-12 -13 -18 -27 29 -37 -62 -21 -38 -63 -66 0
-12 -13 -18 -35 -20 -29 -62 30 -38 -63 -66 0
-12 -13 -18 -27 -20 -37 -62 -30 38 -63 -66 0
-12 -13 -18 -27 -20 -37 -62 30 -38 -63 -66 0
-12 -13 -18 27 -35 20 -29 37 62 30 -38 66 0
-12 -13 -18 -27 35 -29 37 21 30 -38 63 66 0
-12 -13 -27 35 -20 -29 37 21 30 -38 63 66 0
-12 -13 18 27 -35 -20 29 -37 62 -21 -30 38 66 0
-12 -13 18 -27 35 -20 29 -37 -21 -30 38 63 66 0
-12 -13 -18 -27 35 20 29 -37 -21 30 -38 63 66 0
-12 -13 -27 35 -20 -29 37 -62 21 30 38 -63 66 0
-12 -13 -19 -28 -36 -37 -64 -30 -65 -66 0
-12 -13 -36 -20 -29 -37 -64 -30 -65 -66 0
-12 -13 -36 -29 -64 -21 -30 -38 -65 -66 0
-12 -13 -28 -37 -64 -21 -30 -38 -65 -66 0
-12 -13 -28 36 -20 -37 -64 -21 -30 -65 -66 0
-12 -13 -28 36 -20 -29 -64 -21 -38 -65 -66 0
-12 -13 -19 -28 29 -37 -64 -21 -38 -65 -66 0
-12 -13 -19 -36 -20 -29 -64 -30 38 -65 -66 0
-12 -13 -19 -28 -20 -37 -64 30 -38 -65 -66 0
-12 -13 -19 -28 36 20 29 -37 64 -30 38 66 0
-12 -13 -28 36 20 29 -37 64 -21 -30 38 66 0
-12 -13 -19 28 20 37 64 -21 30 -38 -65 -66 0
-12 -13 -19 -28 36 -20 29 -37 64 21 -30 38 65 0
-12 -13 -19 -28 36 20 -29 37 64 -21 30 -38 65 0
-12 -13 -19 28 -36 -20 -29 37 64 21 -30 38 66 0
-12 -13 -28 36 -20 -29 37 -64 21 30 38 -65 66 0
-12 14 15 24 -39 -25 18 -27 42 53 0
-12 14 23 15 -39 -25 18 -27 48 53 0
-12 14 15 24 -39 -40 27 -42 48 53 0
-12 14 15 24 -39 -25 19 -28 43 54 0
-12 23 15 24 -39 -40 19 -43 49 54 0
-12 14 15 24 -39 -40 28 -43 49 54 0
-12 14 15 24 -39 -25 20 -29 44 55 0
-12 14 15 24 -39 -40 29 -44 50 55 0
-12 14 15 24 -39 -25 21 -30 45 56 0
-12 14 15 24 -39 -40 30 -45 51 56 0
-12 14 23 24 -39 -47 18 42 -48 57 0
14 23 -25 17 26 41 52 -18 27 42 -53 0
14 16 -25 17 26 41 52 18 -27 -42 53 0
14 23 -25 17 26 41 52 -19 28 43 -54 0
14 16 -25 17 26 41 52 19 -28 -43 54 0
14 16 -25 17 26 41 52 20 -29 -44 55 0
14 16 -25 17 26 41 52 21 -30 -45 56 0
-12 14 -25 -40 -27 -42 -53 -19 -28 43 -61 0
-12 14 -25 -40 18 -42 -53 -19 -28 -54 -61 0
-12 14 -25 -40 -18 -27 -53 19 -43 -54 -61 0
-12 14 -25 -40 -18 -27 42 -28 -43 -54 -61 0
14 -25 -40 -18 27 53 19 28 43 -54 61 0
-12 14 -25 27 -42 53 19 -28 43 54 61 0
-12 14 -25 -40 -18 27 42 53 19 28 -54 61 0
-12 14 -25 -40 18 27 -42 53 -28 43 54 61 0
-12 14 -25 -40 18 27 -53 -19 28 43 54 61 0
-12 14 -25 -40 -27 42 53 19 28 -43 54 61 0
-12 14 -25 -40 -27 -42 -53 -20 -29 44 -62 0
-12 14 -25 -40 18 -42 -53 -20 -29 -55 -62 0
-12 14 -25 -40 -18 -27 -53 20 -44 -55 -62 0
-12 14 -25 -40 -18 -27 42 -29 -44 -55 -62 0
-12 14 -25 -40 -18 27 42 53 20 29 -55 62 0
-12 14 -25 -40 18 27 -42 53 -29 44 55 62 0
-12 14 -25 -40 18 27 -53 -20 29 44 55 62 0
-12 14 -25 -40 -27 42 53 20 29 -44 55 62 0
-12 14 -25 -40 -27 -42 -53 -21 -30 45 -63 0
-12 14 -25 -40 18 -42 -53 -21 -30 -56 -63 0
-12 14 -25 -40 -18 -27 -53 21 -45 -56 -63 0
-12 14 -25 -40 -18 -27 42 -30 -45 -56 -63 0
-12 14 -25 -40 -28 -43 -54 -20 -29 44 -64 0
-12 14 -25 -40 19 -43 -54 -20 -29 -55 -64 0
-12 14 -25 -40 -19 -28 -54 20 -44 -55 -64 0
-12 14 -25 -40 -19 -28 43 -29 -44 -55 -64 0
-12 14 -25 -40 -19 28 43 54 20 29 -55 64 0
-12 14 -25 -40 19 28 -43 54 -29 44 55 64 0
-12 14 -25 -40 19 28 -54 -20 29 44 55 64 0
-12 14 -25 -40 -28 43 54 20 29 -44 55 64 0
-12 14 -25 19 28 43 54 -20 -29 44 55 -64 0
14 -25 -40 19 28 -43 -54 20 29 44 55 -64 0
14 -25 -40 19 28 43 54 20 29 -44 -55 -64 0
-12 14 -25 -40 -28 -43 -54 -21 -30 45 -65 0
-12 14 -25 -40 19 -43 -54 -21 -30 -56 -65 0
-12 14 -25 -40 -19 -28 -54 21 -45 -56 -65 0
-12 14 -25 -40 -19 -28 43 -30 -45 -56 -65 0
-12 14 -25 -40 -19 28 43 54 21 30 -56 65 0
-12 14 -25 -40 -28 43 54 21 30 -45 56 65 0
-12 14 -25 19 28 43 54 -21 -30 45 56 -65 0
-12 14 -25 -40 -29 -44 -55 -21 -30 45 -66 0
-12 14 -25 -40 20 -44 -55 -21 -30 -56 -66 0
-12 14 -25 -40 -20 -29 -55 21 -45 -56 -66 0
-12 14 -25 -40 -20 -29 44 -30 -45 -56 -66 0
-12 14 -25 -40 20 29 -55 -21 30 45 56 66 0
-12 14 -25 -40 -29 44 55 21 30 -45 56 66 0
-12 17 26 41 27 42 57 21 -30 60 -63 0
-12 14 23 41 -18 27 42 21 45 60 -63 0
-12 14 23 41 19 43 58 -20 29 44 -64 0
-12 14 23 41 28 43 58 20 -29 44 -64 0
-12 17 26 41 19 -28 58 30 45 60 -65 0
-12 14 23 41 20 -29 44 30 45 60 -66 0
-12 14 23 -18 27 42 -28 -43 61 -20 44 62 0
-12 14 23 -18 27 42 -19 43 61 -29 -44 62 0
-12 14 23 27 42 -19 -28 43 -61 -20 44 -64 0
-12 14 23 18 -27 42 -28 -43 -61 -29 44 -64 0
-12 14 23 -18 42 -19 28 43 61 -29 -44 64 0
14 23 -18 -27 42 19 28 43 -61 -20 -62 64 0
14 23 18 27 42 -19 -28 43 -61 -20 62 -64 0
-12 14 23 -18 27 42 -19 43 -20 -44 -62 -64 0
-12 14 23 -27 42 19 -28 43 -29 -44 -62 -64 0
-12 14 23 -18 42 -28 -43 -20 29 44 62 64 0
-12 14 23 -18 -42 -28 43 20 -29 44 62 64 0
14 23 27 42 -19 43 61 -20 -29 -44 -62 -64 0
-12 14 23 18 -27 -19 -28 -43 61 20 -29 44 62 0
-12 14 23 18 -27 19 -28 43 61 -20 -29 -44 62 0
-12 14 23 -18 -27 -42 19 -28 61 20 -29 44 64 0
-12 14 23 18 -27 42 19 -28 61 -20 -29 -44 64 0
-12 14 23 -18 -27 -42 19 -28 43 20 -29 62 64 0
-12 14 23 18 -27 42 -19 -28 -43 20 -29 62 64 0
-12 14 23 -18 -27 42 -28 43 -61 21 45 -63 0
-12 14 23 18 -27 42 -19 -43 61 -30 45 63 0
-12 14 23 -27 42 19 -28 43 61 -21 -45 65 0
-12 14 23 27 42 -19 -28 43 -61 -21 45 -65 0
-12 14 23 -18 -42 19 -28 43 61 -30 45 65 0
-12 14 23 18 42 -19 -28 43 -61 -30 45 -65 0
14 23 -27 42 -19 -28 -43 -61 21 45 63 -65 0
14 23 18 42 -19 -28 -43 -61 -30 45 63 -65 0
-12 14 23 -18 -27 -42 19 -28 43 21 -30 63 65 0
-12 14 23 -27 42 20 -29 44 62 -21 -45 66 0
-12 14 23 -27 42 -20 -29 44 -62 21 45 -66 0
14 23 -18 -27 -42 -29 44 -62 21 45 -63 66 0
14 23 -18 -27 -42 29 44 -62 -21 45 -63 66 0
14 23 -27 42 -20 -29 -44 -62 21 45 63 -66 0
-12 14 23 18 -27 42 -29 44 -30 -45 -63 -66 0
-12 14 23 -18 -42 -29 44 21 -30 45 63 66 0
-12 14 23 18 42 -29 44 -21 -30 45 -63 -66 0
-12 14 23 19 -28 43 -29 44 64 -21 -45 65 0
-12 14 23 -28 -43 20 -29 44 -64 -30 45 -65 0
-12 14 23 -28 -43 -20 29 44 64 -21 45 66 0
-12 14 23 -28 43 20 -29 44 64 -21 -45 66 0
14 23 -28 43 -20 -29 -44 -64 21 45 65 -66 0
14 23 -19 -28 -43 20 44 -64 -30 45 -65 66 0
-12 14 23 -19 -43 -29 44 21 -30 45 65 66 0
-12 14 23 19 43 -29 44 -21 -30 45 -65 -66 0
14 23 -28 43 20 44 64 -21 -30 -45 -65 -66 0
-12 15 24 -25 46 18 -27 48 19 -28 -61 0
-12 15 24 -25 46 18 -27 19 -28 49 -61 0
-12 15 24 46 27 48 53 19 -28 49 -61 0
-12 15 24 46 18 -27 48 28 49 54 -61 0
-12 15 24 -25 46 -27 53 -28 49 54 -61 0
-12 15 24 -25 46 18 -27 48 20 -29 -62 0
-12 15 24 -25 46 18 -27 20 -29 50 -62 0
-12 15 24 46 27 48 53 20 -29 50 -62 0
-12 15 24 46 18 -27 48 29 50 55 -62 0
15 24 -25 46 18 27 48 -29 50 55 -62 0
-12 15 24 -25 46 -27 53 -29 50 55 -62 0
-12 15 -25 -18 -27 48 53 20 29 50 55 -62 0
-12 15 24 -25 46 18 -27 48 21 -30 -63 0
-12 15 24 -25 46 18 -27 21 -30 51 -63 0
-12 15 24 46 27 48 53 21 -30 51 -63 0
-12 15 24 -25 46 -27 48 53 -30 56 -63 0
-12 15 24 46 18 -27 48 30 51 56 -63 0
-12 15 -25 27 -48 53 21 -30 51 56 63 0
-12 15 24 16 -25 46 18 -27 -48 21 -30 56 63 0
-12 15 24 -25 46 19 -28 49 20 -29 -64 0
-12 15 24 -25 46 19 -28 20 -29 50 -64 0
-12 15 24 46 19 49 54 -20 29 50 -64 0
-12 15 24 46 28 49 54 20 -29 50 -64 0
15 24 -25 46 -28 49 54 20 29 50 -64 0
15 24 -25 46 19 28 49 -29 50 55 -64 0
-12 15 24 -25 46 -28 54 -29 50 55 -64 0
-12 15 24 -25 46 19 -28 49 21 -30 -65 0
-12 15 24 -25 46 19 -28 21 -30 51 -65 0
-12 15 24 46 28 49 54 21 -30 51 -65 0
-12 15 24 -25 46 -28 49 54 -30 56 -65 0
-12 15 24 46 19 -28 49 30 51 56 -65 0
-12 15 24 -25 46 -28 54 -30 51 56 -65 0
-12 15 24 -25 46 20 -29 50 21 -30 -66 0
-12 15 24 -25 46 20 -29 21 -30 51 -66 0
-12 15 24 46 29 50 55 21 -30 51 -66 0
15 24 -25 46 -29 50 55 21 30 51 -66 0
-12 15 24 -25 46 -29 50 55 -30 56 -66 0
-12 15 24 46 20 -29 50 30 51 56 -66 0
-12 15 24 -25 46 -29 55 -30 51 56 -66 0
-12 15 24 16 -25 46 -29 -50 55 21 -30 56 66 0
-12 15 24 -18 -48 -19 28 49 -61 -20 50 -62 0
-12 15 24 -18 -27 48 -19 49 -61 29 50 -62 0
-12 15 24 -18 -27 48 19 49 -61 -29 50 -62 0
-12 15 24 -18 -48 -19 49 -61 -20 29 50 -62 0
-12 15 24 -18 27 48 -19 -49 -61 -20 50 -64 0
-12 15 24 -27 48 19 -28 49 61 -20 -50 64 0
-12 15 24 18 -27 48 -28 -49 -61 -29 50 -64 0
-12 15 24 -18 48 -19 -49 -61 -20 29 50 -64 0
-12 15 24 -27 48 -28 -49 -61 20 -29 50 -64 0
-12 15 24 -18 48 -19 28 49 -20 -50 -62 -64 0
15 24 -18 -27 -48 19 49 -61 -29 50 -62 64 0
-12 15 24 27 48 -19 49 -20 -29 50 -62 -64 0
15 24 -18 48 28 49 61 -20 -29 -50 -62 -64 0
-12 15 24 -18 27 -19 -28 -49 61 -20 29 50 62 0
-12 15 24 18 -27 -19 -28 -49 61 20 -29 50 62 0
-12 15 24 18 -27 19 -28 49 61 -20 -29 -50 62 0
-12 15 24 -18 -27 -48 -19 28 61 -20 29 50 64 0
-12 15 24 -18 -27 -48 19 -28 61 20 -29 50 64 0
-12 15 24 -18 27 48 -19 28 61 -20 -29 -50 64 0
-12 15 24 18 -27 48 19 -28 61 -20 -29 -50 64 0
-12 15 24 -18 -27 -48 -19 28 49 -20 29 62 64 0
-12 15 24 -18 27 48 -19 -28 -49 -20 29 62 64 0
-12 15 24 18 -27 48 -19 -28 -49 20 -29 62 64 0
-12 15 24 -18 27 48 -28 -49 61 -21 51 63 0
-12 15 24 18 -27 48 -19 -49 61 -30 51 63 0
-12 15 24 -18 -27 48 19 49 -61 -30 51 -63 0
-12 15 24 18 -27 48 -28 -49 -61 -30 51 -65 0
-12 15 24 -18 48 -19 -49 -61 -21 30 51 -65 0
15 24 -27 48 -19 -28 -49 -61 21 51 63 -65 0
15 24 27 48 -19 -28 -49 -61 -21 51 63 -65 0
15 24 -18 -27 -48 19 49 -61 -30 51 -63 65 0
15 24 -18 48 -19 -28 -49 -61 30 51 63 -65 0
-12 15 24 -18 48 -28 -49 -21 30 51 63 65 0
-12 15 24 -18 -48 -20 29 50 -62 -21 51 -63 0
-12 15 24 -27 -48 20 -29 50 -62 -30 51 -63 0
-12 15 24 -27 48 -29 -50 -62 21 -30 51 -66 0
-12 15 24 -18 48 -20 29 50 -21 -51 -63 -66 0
15 24 -18 -27 -48 -29 50 -62 21 51 -63 66 0
15 24 -18 -27 -48 29 50 -62 -21 51 -63 66 0
15 24 -27 48 -20 -29 -50 -62 21 51 63 -66 0
15 24 27 48 -20 -29 -50 -62 -21 51 63 -66 0
-12 15 24 18 -27 48 -29 50 -30 -51 -63 -66 0
15 24 -18 48 -20 -29 -50 -62 30 51 63 -66 0
-12 15 24 -27 48 -20 -50 21 -30 51 63 66 0
-12 15 24 -18 -48 -29 50 21 -30 51 63 66 0
-12 15 24 -18 48 29 50 -21 -30 51 -63 -66 0
15 24 -18 48 29 50 62 -21 -30 -51 -63 -66 0
-12 15 24 18 -27 -20 -29 -50 62 21 -30 51 63 0
-12 15 24 -18 -27 -48 -20 29 50 -21 30 63 66 0
-12 15 24 -18 -27 -48 20 -29 50 21 -30 63 66 0
-12 15 24 28 49 -20 -29 50 -64 -21 51 -66 0
-12 15 24 19 -28 49 -29 -50 -64 -30 51 -66 0
-12 15 24 -19 49 -20 -50 -64 -21 30 51 -66 0
-12 15 24 -19 28 49 -20 50 -21 -51 -65 -66 0
15 24 -19 -28 -49 29 50 -64 -21 51 -65 66 0
15 24 -28 49 -20 -29 -50 -64 21 51 65 -66 0
15 24 28 49 -20 -29 -50 -64 -21 51 65 -66 0
-12 15 24 19 -28 49 -29 50 -30 -51 -65 -66 0
15 24 -19 -28 -49 20 50 -64 -30 51 -65 66 0
15 24 -19 49 -20 -29 -50 -64 30 51 65 -66 0
15 24 19 49 -20 -29 -50 -64 -30 51 65 -66 0
-12 15 24 19 49 -29 50 -21 -30 51 -65 -66 0
15 24 28 49 -20 50 64 -21 -30 -51 -65 -66 0
15 24 -19 49 29 50 64 -21 -30 -51 -65 -66 0
15 24 19 49 -29 50 64 -21 -30 -51 -65 -66 0
-12 15 24 19 -28 -20 -29 -50 64 21 -30 51 65 0
-12 15 24 -19 28 49 -20 -29 -50 -21 30 65 66 0
-12 -25 17 26 52 -27 53 57 -28 54 -61 0
-12 -25 17 26 52 18 -27 19 -28 58 -61 0
-25 17 26 52 -27 53 57 19 28 58 -61 0
-12 -25 17 26 52 -27 53 -28 54 58 -61 0
-12 17 26 52 18 -27 57 28 54 58 -61 0
-25 17 26 52 18 27 57 -28 54 58 -61 0
-12 16 -25 17 26 52 -27 53 -57 19 -28 54 61 0
-12 -25 17 26 52 -27 53 57 -29 55 -62 0
-25 17 26 52 -27 53 57 20 29 59 -62 0
-12 -25 17 26 52 -27 53 -29 55 59 -62 0
-25 17 26 52 18 27 57 -29 55 59 -62 0
-12 16 -25 17 26 52 18 -27 53 -29 55 -59 62 0
-12 -25 17 26 52 18 -27 57 21 -30 -63 0
-12 -25 17 26 52 18 -27 21 -30 60 -63 0
-12 17 26 52 27 53 57 21 -30 60 -63 0
-12 -25 17 26 52 -27 53 -30 56 60 -63 0
-12 17 26 52 18 -27 57 30 56 60 -63 0
-25 17 26 52 18 27 57 -30 56 60 -63 0
-12 -25 52 18 -27 -53 57 21 30 56 60 -63 0
-12 -25 17 26 52 19 -28 58 20 -29 -64 0
-12 -25 17 26 52 -28 54 58 -29 55 -64 0
-12 -25 17 26 52 19 -28 20 -29 59 -64 0
-12 17 26 52 28 54 58 20 -29 59 -64 0
-25 17 26 52 -28 54 58 20 29 59 -64 0
-12 -25 17 26 52 -28 54 -29 55 59 -64 0
-12 17 26 52 19 -28 58 29 55 59 -64 0
-25 17 26 52 19 28 58 -29 55 59 -64 0
-12 -25 52 19 28 -58 20 -29 55 59 64 0
-12 -25 17 26 52 19 -28 58 21 -30 -65 0
-12 -25 17 26 52 -28 54 58 -30 56 -65 0
-12 -25 17 26 52 19 -28 21 -30 60 -65 0
-12 17 26 52 28 54 58 21 -30 60 -65 0
-25 17 26 52 -28 54 58 21 30 60 -65 0
-12 17 26 52 19 -28 58 30 56 60 -65 0
-12 16 -25 17 26 52 19 -28 -58 21 -30 56 65 0
-12 16 -25 17 26 52 -28 54 -58 21 -30 56 65 0
-12 -25 17 26 52 20 -29 59 21 -30 -66 0
-12 -25 17 26 52 -29 55 59 -30 56 -66 0
-12 -25 17 26 52 20 -29 21 -30 60 -66 0
-12 17 26 52 29 55 59 21 -30 60 -66 0
-25 17 26 52 -29 55 59 21 30 60 -66 0
-12 -25 17 26 52 -29 55 -30 56 60 -66 0
-25 17 26 52 20 29 59 -30 56 60 -66 0
-12 -25 -27 -53 -19 54 -61 -20 -29 -62 -64 0
-12 -25 18 -53 -28 -54 -61 -20 -29 -62 -64 0
-12 -25 -27 -53 -19 -28 -61 20 -55 -62 -64 0
-12 -25 18 -53 -19 -28 -61 -29 -55 -62 -64 0
-12 -25 -18 -27 19 -54 -61 -29 -55 -62 -64 0
-12 -25 -18 27 53 19 -28 -54 61 20 -55 62 0
-12 -25 -18 -27 53 19 28 -54 61 -20 55 64 0
-12 -25 18 -27 -53 -19 28 54 61 20 -55 64 0
-12 -25 18 -53 -19 28 54 61 20 -29 -55 64 0
-12 -25 18 -27 19 -28 -54 -61 29 55 62 -64 0
-12 -25 18 27 -19 -28 54 -61 -29 55 62 -64 0
-12 -25 18 -27 -53 19 -54 -20 29 55 62 64 0
-12 -25 -18 -27 53 -19 54 20 29 -55 62 64 0
-12 -25 -18 -27 53 19 -28 -54 61 -20 29 55 62 0
-12 -25 18 -27 -53 19 28 -54 61 -20 -29 55 62 0
-12 -25 18 -27 -53 -19 -28 54 61 20 29 -55 62 0
-12 -25 -18 -27 53 -19 28 54 61 20 -29 -55 62 0
-12 -25 18 -27 -53 -19 -28 54 61 -20 29 55 64 0
-12 -25 18 27 -53 -19 28 54 61 -20 -29 55 64 0
-12 -25 18 27 -53 19 -28 -54 61 -20 -29 55 64 0
-12 -25 -18 -27 53 19 -28 -54 61 20 29 -55 64 0
-12 -25 -18 27 53 -19 -28 54 61 20 -29 -55 64 0
-12 -25 18 -27 -53 19 28 54 61 20 -55 -62 -64 0
-12 -25 18 -27 -53 -19 28 54 -20 -29 55 62 64 0
-12 -25 -18 27 53 19 -28 -54 -20 -29 55 62 64 0
-12 -25 18 -27 -53 -19 28 54 20 29 -55 62 64 0
-12 -25 18 27 -53 -19 -28 54 20 -29 -55 62 64 0
-12 -25 -18 -27 53 19 28 -54 20 -29 -55 62 64 0
-12 -25 18 -27 -53 19 -54 -61 20 29 55 62 -64 0
-12 -25 -18 -27 -53 -19 -61 -56 -63 -65 0
-12 -25 -27 -53 -19 54 -61 -21 -30 -63 -65 0
-12 -25 -18 53 -28 -54 -61 -21 -30 -63 -65 0
-12 -25 18 -53 -28 -54 -61 -21 -30 -63 -65 0
-12 -25 -27 -53 -19 -28 -61 -21 56 -63 -65 0
-12 -25 18 -53 -19 -28 -61 -30 -56 -63 -65 0
-12 -25 -18 -27 53 19 28 -54 61 -21 56 65 0
-12 -25 -18 -27 53 19 28 -61 -30 56 -63 65 0
-12 -25 18 -27 -53 19 28 -54 61 -21 -30 56 63 0
-12 -25 18 -27 -53 -19 28 54 -21 -30 56 63 65 0
-12 -25 -18 -27 -53 -55 -62 -21 -63 -66 0
-12 -25 -18 -20 -29 -55 -62 -56 -63 -66 0
-12 -25 -18 -55 -62 -21 -30 -56 -63 -66 0
-12 -25 -27 -53 -20 55 -62 -21 -30 -63 -66 0
-12 -25 18 -53 -29 -55 -62 -21 -30 -63 -66 0
-12 -25 -27 -53 -20 -29 -62 21 -56 -63 -66 0
-12 -25 -18 -27 -29 -55 -62 -21 56 -63 -66 0
-12 -25 -18 -27 -29 -55 -62 21 -56 -63 -66 0
-12 -25 -18 53 -20 -29 -62 -30 -56 -63 -66 0
-12 -25 18 -53 -20 -29 -62 -30 -56 -63 -66 0
-12 -25 -18 -27 53 -20 29 55 62 21 -30 -56 63 0
-12 -25 18 -27 -53 -20 -29 55 62 -21 30 56 66 0
-12 -25 -18 27 53 -20 -29 55 62 21 -30 -56 66 0
-12 -25 18 -27 -53 20 29 55 62 21 -56 -63 -66 0
-12 -25 -18 -27 53 20 29 -55 -21 30 56 63 66 0
-12 -25 -19 -20 -29 -55 -64 -56 -65 -66 0
-12 -25 -54 -20 -64 -21 -30 -56 -65 -66 0
-12 -25 -19 -55 -64 -21 -30 -56 -65 -66 0
-12 -25 -28 -54 -20 55 -64 -21 -30 -65 -66 0
-12 -25 -19 -28 -29 -55 -64 21 -56 -65 -66 0
-12 -25 -19 54 -20 -29 -64 -30 -56 -65 -66 0
-12 -25 -19 -28 -20 55 -64 -30 -56 -65 -66 0
-12 -25 19 -28 -54 29 55 -64 21 -30 -65 66 0
-12 -25 -19 -28 54 -20 55 21 30 -56 65 66 0
-12 -25 -19 54 -20 -29 55 21 30 -56 65 66 0
-12 -25 19 -28 -54 20 29 -55 64 -21 -30 56 65 0
-12 -25 19 28 -54 20 -29 -55 64 -21 -30 56 66 0
-12 17 26 -18 27 57 -19 58 61 -29 -59 62 0
-12 17 26 -27 -57 -19 28 58 61 -20 59 64 0
-12 17 26 -27 57 19 -28 58 61 -20 -59 64 0
-12 17 26 -18 -57 19 -28 58 61 -29 59 64 0
17 26 -18 -27 57 19 28 58 -61 -29 -62 64 0
-12 17 26 -27 -57 -19 58 -20 29 59 62 64 0
-12 17 26 -27 57 -19 -58 20 -29 59 62 64 0
17 26 18 27 57 -28 61 -20 -29 59 -62 -64 0
-12 17 26 -18 27 -19 -28 -58 61 -20 29 59 62 0
-12 17 26 -18 27 -19 28 58 61 -20 -29 -59 62 0
-12 17 26 -18 -27 -57 -19 28 61 -20 29 59 64 0
-12 17 26 -18 27 57 -19 28 61 -20 -29 -59 64 0
-12 17 26 -18 -27 -57 -19 28 58 -20 29 62 64 0
-12 17 26 -18 27 57 -19 -28 -58 -20 29 62 64 0
17 26 27 57 -19 -28 -58 -61 -21 60 63 -65 0
-12 17 26 -18 27 57 -29 -59 62 -21 60 63 0
-12 17 26 -27 -57 -20 29 59 62 -21 60 66 0
-12 17 26 -27 57 20 -29 59 62 -21 -60 66 0
-12 17 26 -27 57 -20 -29 59 -62 21 60 -66 0
-12 17 26 -18 57 -20 29 59 62 -30 -60 66 0
17 26 27 57 -20 -29 -59 -62 -21 60 63 -66 0
17 26 -18 -27 -57 20 59 -62 -30 60 -63 66 0
-12 17 26 -18 27 57 -20 -29 -59 -21 30 63 66 0
-12 17 26 -19 -58 -20 29 59 -64 -21 60 -65 0
-12 17 26 -19 28 58 -20 59 -21 -60 -65 -66 0
17 26 28 58 -20 -29 -59 -64 -21 60 65 -66 0
-12 17 26 -19 58 29 59 -21 -30 60 -65 -66 0
17 26 19 28 58 -29 64 -21 -30 60 -65 -66 0
-12 17 26 -19 -28 -58 -20 29 59 -21 30 65 66 0
-12 17 26 -19 28 58 -20 -29 -59 -21 30 65 66 0
-12 -18 19 -28 61 -20 29 -62 -21 -30 65 0
-12 18 -27 -19 -28 61 -20 29 -21 63 -66 0
-12 -18 27 -19 -28 20 -29 64 -21 -63 66 0
-12 18 -27 -19 -28 -20 29 64 -30 -63 66 0
-12 -18 -27 19 -28 61 -20 29 -21 65 -66 0
-12 -18 -27 -19 28 20 -29 62 -21 -65 66 0
-12 -18 -27 -19 28 61 20 -29 -30 65 -66 0
-12 -18 -27 19 -28 61 -29 64 -21 30 63 -66 0
-12 -18 -27 -19 28 61 20 -29 62 -21 65 -66 0
-12 -18 -27 19 -28 61 -20 29 62 -30 65 -66 0
-12 27 -19 -28 -61 20 29 -62 64 -21 -63 -65 66 0
-12 27 19 28 -61 -20 -29 -62 64 -21 -63 65 -66 0
-12 -27 -19 -28 -61 20 29 62 64 21 -63 -65 -66 0
-12 -18 -27 19 28 61 20 -62 -64 -30 -63 65 -66 0
-12 -18 -19 -28 -61 20 29 62 64 30 -63 -65 -66 0
-12 -18 19 28 61 -20 -29 -62 64 30 -63 -65 -66 0
-13 31 -39 16 33 -40 21 -45 51 56 0
-13 14 15 32 -39 -40 38 -45 51 56 0
-13 14 31 15 -39 -34 18 -35 48 57 0
-13 14 31 15 -39 -47 35 42 -48 57 0
-13 14 31 15 -39 -34 19 -36 49 58 0
-13 14 31 15 -39 -47 36 43 -49 58 0
-13 14 31 15 -39 -34 20 -37 50 59 0
-13 14 31 15 -39 -47 37 44 -50 59 0
-13 14 31 15 -39 -34 21 -38 51 60 0
-13 14 31 16 -40 -34 19 -36 54 58 0
-13 14 31 -34 41 18 -35 42 19 -36 -61 0
-13 14 31 -34 41 18 -35 19 -36 43 -61 0
-13 14 31 41 35 42 57 19 -36 43 -61 0
14 31 -34 41 -35 42 57 19 36 43 -61 0
-13 14 31 -34 41 -35 42 57 -36 58 -61 0
-13 14 31 41 18 -35 42 36 43 58 -61 0
14 31 -34 41 18 35 42 -36 43 58 -61 0
-13 14 31 -34 41 -35 57 -36 43 58 -61 0
14 31 -34 41 18 42 57 36 43 -58 -61 0
-13 14 31 17 -34 41 18 -35 57 19 -36 -43 61 0
-13 14 31 -34 41 18 -35 42 20 -37 -62 0
-13 14 31 -34 41 18 -35 20 -37 44 -62 0
-13 14 31 41 35 42 57 20 -37 44 -62 0
-13 14 31 -34 41 -35 42 57 -37 59 -62 0
-13 14 31 41 18 -35 42 37 44 59 -62 0
14 31 -34 41 18 35 42 -37 44 59 -62 0
-13 14 31 -34 41 -35 57 -37 44 59 -62 0
-13 14 31 -34 41 18 -35 42 21 -38 -63 0
-13 14 31 41 35 42 57 21 -38 45 -63 0
-13 14 31 -34 41 -35 42 57 -38 60 -63 0
14 31 -34 41 35 42 -57 21 45 60 -63 0
-13 14 31 41 18 -35 42 38 45 60 -63 0
14 31 -34 41 18 35 42 -38 45 60 -63 0
-13 14 31 -34 41 19 -36 43 20 -37 -64 0
-13 14 31 -34 41 19 -36 20 -37 44 -64 0
-13 14 31 41 36 43 58 20 -37 44 -64 0
14 31 -34 41 -36 43 58 20 37 44 -64 0
-13 14 31 -34 41 -36 43 58 -37 59 -64 0
14 31 -34 41 36 43 -58 20 44 59 -64 0
-13 14 31 41 19 -36 43 37 44 59 -64 0
14 31 -34 41 19 36 43 -37 44 59 -64 0
-13 14 31 -34 41 -36 58 -37 44 59 -64 0
-13 -34 41 19 36 -43 20 -37 44 59 64 0
-13 14 31 17 -34 41 19 -36 58 20 -37 -44 64 0
-13 14 31 17 -34 41 19 -36 -43 20 -37 59 64 0
-13 14 31 17 -34 41 -36 -43 58 20 -37 59 64 0
-13 14 31 17 -34 41 19 -36 58 -37 -44 59 64 0
-13 14 31 -34 41 19 -36 43 21 -38 -65 0
-13 14 31 41 36 43 58 21 -38 45 -65 0
14 31 -34 41 -36 43 58 21 38 45 -65 0
-13 14 31 -34 41 -36 43 58 -38 60 -65 0
-13 14 31 41 -19 36 43 21 45 60 -65 0
-13 14 31 41 19 -36 43 38 45 60 -65 0
14 31 -34 41 19 36 43 -38 45 60 -65 0
-13 14 31 -34 41 -36 58 -38 45 60 -65 0
-13 14 31 17 -34 41 19 -36 58 21 -38 -45 65 0
-13 14 31 -34 41 20 -37 44 21 -38 -66 0
-13 14 31 41 37 44 59 21 -38 45 -66 0
14 31 -34 41 -37 44 59 21 38 45 -66 0
-13 14 31 -34 41 -37 44 59 -38 60 -66 0
-13 14 31 41 -20 37 44 21 45 60 -66 0
-13 14 31 41 20 -37 44 38 45 60 -66 0
-13 14 31 -34 41 -37 59 -38 45 60 -66 0
-13 14 31 17 -34 41 20 -37 -44 21 -38 60 66 0
-13 14 31 18 -35 42 -36 43 61 -20 -44 62 0
-13 14 31 -18 -35 42 36 43 -61 -20 44 -62 0
-13 14 31 -18 -42 -19 36 43 -61 -20 44 -62 0
-13 14 31 -18 35 42 -19 43 61 -37 -44 62 0
-13 14 31 -18 -35 42 -19 43 -61 37 44 -62 0
-13 14 31 -35 -42 -36 43 -61 20 -37 44 -62 0
-13 14 31 -18 35 42 -19 -43 -61 -20 44 -64 0
-13 14 31 -35 42 19 -36 43 61 -20 -44 64 0
-13 14 31 18 -35 42 -36 -43 -61 -37 44 -64 0
-13 14 31 -18 35 42 -19 43 -20 -44 -62 -64 0
14 31 -18 -35 -42 -36 43 -61 20 44 -62 64 0
-13 14 31 -35 42 19 -36 43 -37 -44 -62 -64 0
14 31 -18 -35 -42 -19 43 -61 37 44 -62 64 0
-13 14 31 35 42 -19 43 -20 -37 44 -62 -64 0
14 31 -35 42 19 43 61 -20 -37 -44 -62 -64 0
14 31 35 42 -19 43 61 -20 -37 -44 -62 -64 0
14 31 18 42 -36 43 61 -20 -37 -44 -62 -64 0
-13 14 31 -18 35 -19 -36 -43 61 -20 37 44 62 0
-13 14 31 18 -35 -19 -36 -43 61 20 -37 44 62 0
-13 14 31 -18 35 -19 36 43 61 -20 -37 -44 62 0
-13 14 31 18 -35 19 -36 43 61 -20 -37 -44 62 0
-13 14 31 -18 -35 -42 19 -36 61 20 -37 44 64 0
-13 14 31 -18 35 42 -19 36 61 -20 -37 -44 64 0
-13 14 31 18 -35 42 19 -36 61 -20 -37 -44 64 0
-13 14 31 -18 -35 -42 -19 36 43 -20 37 62 64 0
-13 14 31 -18 35 42 -19 -36 -43 -20 37 62 64 0
-13 14 31 -18 -35 -42 19 -36 43 20 -37 62 64 0
-13 14 31 18 -35 42 -19 -36 -43 20 -37 62 64 0
-13 14 31 -18 -42 -19 36 43 -61 -21 45 -63 0
-13 14 31 -18 -35 42 -19 43 -61 38 45 -63 0
14 31 -18 -35 -42 -36 43 -61 21 45 -63 65 0
14 31 -35 42 -19 -36 -43 -61 21 45 63 -65 0
14 31 35 42 -19 -36 -43 -61 -21 45 63 -65 0
-13 14 31 -35 42 19 -36 43 -38 -45 -63 -65 0
14 31 18 42 -19 -36 -43 -61 -38 45 63 -65 0
-13 14 31 -18 -35 -42 -19 36 43 -21 38 63 65 0
-13 14 31 -18 35 42 -19 -36 -43 -21 38 63 65 0
-13 14 31 -18 35 42 -37 -44 62 -21 45 63 0
-13 14 31 -18 -35 42 37 44 -62 -21 45 -63 0
-13 14 31 -18 -35 42 -20 44 -62 38 45 -63 0
-13 14 31 18 -35 42 -37 -44 -62 -38 45 -66 0
-13 14 31 -18 35 42 -20 44 -21 -45 -63 -66 0
14 31 -18 -35 -42 -37 44 -62 21 45 -63 66 0
14 31 -18 -35 -42 37 44 -62 -21 45 -63 66 0
14 31 -18 42 -20 -37 -44 -62 38 45 63 -66 0
-13 14 31 -18 -35 -42 -20 37 44 -21 38 63 66 0
-13 14 31 -18 35 42 -20 -37 -44 -21 38 63 66 0
-13 14 31 19 -36 43 -37 44 64 -21 -45 65 0
-13 14 31 -19 -36 43 37 44 -64 -21 45 -65 0
-13 14 31 -19 -43 -20 37 44 -64 -21 45 -65 0
-13 14 31 -19 -36 43 20 44 -64 -38 45 -65 0
-13 14 31 -36 -43 20 -37 44 -64 -38 45 -65 0
-13 14 31 -36 43 -20 -37 44 -64 21 45 -66 0
-13 14 31 19 -36 43 -37 -44 -64 -38 45 -66 0
-13 14 31 19 43 -20 -37 44 -64 -38 45 -66 0
14 31 -36 43 -20 -37 -44 -64 21 45 65 -66 0
14 31 36 43 -20 -37 -44 -64 -21 45 65 -66 0
14 31 -19 -36 -43 20 44 -64 -38 45 -65 66 0
14 31 -19 43 -20 -37 -44 -64 38 45 65 -66 0
14 31 -36 43 20 44 64 -21 -38 -45 -65 -66 0
14 31 36 43 -20 44 64 -21 -38 -45 -65 -66 0
14 31 19 43 -37 44 64 -21 -38 -45 -65 -66 0
-13 14 31 -19 -36 -43 -20 37 44 -21 38 65 66 0
-13 14 31 -19 36 43 -20 -37 -44 -21 38 65 66 0
-13 14 31 19 -36 43 -20 -37 -44 21 -38 65 66 0
15 32 16 33 46 -34 52 -18 35 48 -57 0
15 16 33 46 17 -34 52 18 -35 -48 57 0
15 32 16 33 46 -34 52 -19 36 49 -58 0
15 16 33 46 17 -34 52 19 -36 -49 58 0
15 32 16 33 46 -34 52 -20 37 50 -59 0
15 16 33 46 17 -34 52 20 -37 -50 59 0
15 32 16 33 46 -34 52 -21 38 51 -60 0
15 16 33 46 17 -34 52 21 -38 -51 60 0
-13 15 32 46 -18 35 48 19 49 54 -61 0
-13 16 33 46 -18 35 53 19 49 54 -61 0
-13 16 33 46 18 -35 53 36 49 54 -61 0
-13 16 33 46 35 48 53 20 -37 55 -62 0
-13 16 33 46 18 -35 53 38 51 56 -63 0
-13 16 33 46 19 -36 54 38 51 56 -65 0
-13 15 -34 -47 -35 -48 -57 -19 -36 49 -61 0
-13 15 -34 -47 18 -48 -57 -19 -36 -58 -61 0
-13 15 -34 -47 -18 -35 -57 19 -49 -58 -61 0
-13 15 -34 -47 -18 -35 48 -36 -49 -58 -61 0
-13 15 -34 -47 -18 35 48 57 19 36 -58 61 0
-13 15 -34 -47 18 35 -48 57 -36 49 58 61 0
-13 15 -34 -47 -35 48 57 19 36 -49 58 61 0
15 -34 -47 18 35 48 57 19 36 -49 -58 -61 0
-13 15 -34 -47 -35 -48 -57 -20 -37 50 -62 0
-13 15 -34 -47 18 -48 -57 -20 -37 -59 -62 0
-13 15 -34 -47 -18 -35 -57 20 -50 -59 -62 0
-13 15 -34 -47 -18 -35 48 -37 -50 -59 -62 0
-13 15 -34 -47 -18 35 48 57 20 37 -59 62 0
-13 15 -34 -47 18 35 -48 57 -37 50 59 62 0
-13 15 -34 -47 18 35 -57 -20 37 50 59 62 0
-13 15 -34 -47 -35 48 57 20 37 -50 59 62 0
-13 15 -34 -47 -35 -48 -57 -21 -38 51 -63 0
-13 15 -34 -47 18 -48 -57 -21 -38 -60 -63 0
-13 15 -34 -47 -18 -35 -57 21 -51 -60 -63 0
-13 15 -34 -47 -18 -35 48 -38 -51 -60 -63 0
-13 15 -34 18 35 48 57 -21 -38 51 60 -63 0
-13 15 -34 -47 -36 -49 -58 -20 -37 50 -64 0
-13 15 -34 -47 19 -49 -58 -20 -37 -59 -64 0
-13 15 -34 -47 -19 -36 -58 20 -50 -59 -64 0
-13 15 -34 -47 -19 -36 49 -37 -50 -59 -64 0
-13 15 -34 36 -49 58 20 -37 50 59 64 0
-13 15 -34 -47 -19 36 49 58 20 37 -59 64 0
-13 15 -34 -47 19 36 -49 58 -37 50 59 64 0
-13 15 -34 -47 19 36 -58 -20 37 50 59 64 0
-13 15 -34 -47 -36 49 58 20 37 -50 59 64 0
-13 15 -34 -47 -36 -49 -58 -21 -38 51 -65 0
-13 15 -34 -47 19 -49 -58 -21 -38 -60 -65 0
-13 15 -34 -47 -19 -36 -58 21 -51 -60 -65 0
-13 15 -34 -47 -19 -36 49 -38 -51 -60 -65 0
-13 15 -34 -47 -19 36 49 58 21 38 -60 65 0
-13 15 -34 -47 19 36 -58 -21 38 51 60 65 0
15 -34 -47 19 36 -49 -58 21 38 51 60 -65 0
-13 15 -34 -47 -37 -50 -59 -21 -38 51 -66 0
-13 15 -34 -47 20 -50 -59 -21 -38 -60 -66 0
-13 15 -34 -47 -20 -37 -59 21 -51 -60 -66 0
-13 15 -34 -47 -20 -37 50 -38 -51 -60 -66 0
-13 15 -34 37 -50 59 21 -38 51 60 66 0
15 -34 -47 20 37 -50 -59 21 38 51 60 -66 0
-13 15 32 -18 -35 48 -36 49 -61 20 50 -62 0
-13 15 32 -18 -35 48 19 49 -61 -37 50 -62 0
-13 15 32 -18 -48 -19 49 -61 -20 37 50 -62 0
-13 15 32 -35 -48 -19 36 49 61 -20 50 64 0
-13 15 32 -35 48 19 -36 49 61 -20 -50 64 0
-13 15 32 -18 -48 19 -36 49 61 -37 50 64 0
15 32 -18 -35 -48 -36 49 -61 20 50 -62 64 0
-13 15 32 -35 -48 -19 49 -20 37 50 62 64 0
-13 15 32 18 -35 -19 -36 -49 61 20 -37 50 62 0
-13 15 32 18 -35 19 -36 49 61 -20 -37 -50 62 0
-13 15 32 -18 -35 -48 19 -36 61 20 -37 50 64 0
-13 15 32 18 -35 48 19 -36 61 -20 -37 -50 64 0
-13 15 32 -18 -35 -48 19 -36 49 20 -37 62 64 0
-13 15 32 18 -35 48 -19 -36 -49 20 -37 62 64 0
-13 15 32 -35 48 19 -36 49 61 -21 -51 65 0
-13 15 32 18 48 -19 -36 49 -61 -38 51 -65 0
15 32 -18 -35 -48 19 49 -61 -38 51 -63 65 0
15 32 18 48 -19 -36 -49 -61 -38 51 63 -65 0
-13 15 32 -35 48 -19 -49 21 -38 51 63 65 0
-13 15 32 -18 -35 48 20 50 -62 -38 51 -63 0
-13 15 32 -35 48 20 -37 50 62 -21 -51 66 0
15 32 -18 -35 -48 -37 50 -62 21 51 -63 66 0
-13 15 32 -35 48 20 -37 50 -38 -51 -63 -66 0
15 32 18 48 -20 -37 -50 -62 -38 51 63 -66 0
-13 15 32 -19 49 -20 -37 50 -64 38 51 -66 0
15 32 -19 -36 49 20 37 50 -64 -21 -65 66 0
15 32 -19 -36 -49 -37 50 -64 21 51 -65 66 0
15 32 -36 49 -20 -37 -50 -64 21 51 65 -66 0
-13 15 32 -19 -49 -37 50 21 -38 51 65 66 0
15 32 19 36 49 -20 64 -21 -38 51 -65 -66 0
15 32 19 49 -37 50 64 -21 -38 -51 -65 -66 0
-13 16 33 -34 52 18 -35 53 19 -36 -61 0
-13 16 33 -34 52 18 -35 19 -36 54 -61 0
-13 16 33 52 35 53 57 19 -36 54 -61 0
16 33 -34 52 -35 53 57 19 36 54 -61 0
-13 16 33 -34 52 -35 53 57 -36 58 -61 0
-13 16 33 52 -18 35 53 19 54 58 -61 0
-13 16 33 52 18 -35 53 36 54 58 -61 0
16 33 -34 52 18 35 53 -36 54 58 -61 0
-13 16 33 -34 52 -35 57 -36 54 58 -61 0
-13 16 33 17 -34 52 18 -35 -53 19 -36 58 61 0
-13 16 33 17 -34 52 -35 -53 57 19 -36 58 61 0
-13 16 33 -34 52 18 -35 20 -37 55 -62 0
-13 16 33 52 35 53 57 20 -37 55 -62 0
-13 16 33 -34 52 -35 53 57 -37 59 -62 0
16 33 -34 52 35 53 -57 20 55 59 -62 0
16 33 -34 52 18 35 53 -37 55 59 -62 0
-13 16 33 -34 52 -35 57 -37 55 59 -62 0
-13 16 33 17 -34 52 18 -35 -53 20 -37 59 62 0
-13 16 33 -34 52 18 -35 53 21 -38 -63 0
-13 16 33 52 35 53 57 21 -38 56 -63 0
-13 16 33 -34 52 -35 53 57 -38 60 -63 0
16 33 -34 52 18 35 53 -38 56 60 -63 0
-13 16 33 -34 52 -35 57 -38 56 60 -63 0
-13 16 33 17 -34 52 18 -35 -53 21 -38 60 63 0
-13 16 33 -34 52 19 -36 54 20 -37 -64 0
-13 16 33 -34 52 19 -36 20 -37 55 -64 0
-13 16 33 52 36 54 58 20 -37 55 -64 0
16 33 -34 52 -36 54 58 20 37 55 -64 0
-13 16 33 -34 52 -36 54 58 -37 59 -64 0
-13 16 33 52 19 -36 54 37 55 59 -64 0
16 33 -34 52 19 36 54 -37 55 59 -64 0
-13 16 33 17 -34 52 19 -36 58 20 -37 -55 64 0
-13 16 33 17 -34 52 19 -36 -54 20 -37 59 64 0
-13 16 33 -34 52 19 -36 54 21 -38 -65 0
16 33 -34 52 -36 54 58 21 38 56 -65 0
-13 16 33 -34 52 -36 54 58 -38 60 -65 0
16 33 -34 52 19 36 54 -38 56 60 -65 0
-13 16 33 -34 52 -36 58 -38 56 60 -65 0
-13 -34 52 19 36 -54 21 -38 56 60 65 0
-13 16 33 -34 52 20 -37 55 21 -38 -66 0
-13 16 33 52 37 55 59 21 -38 56 -66 0
16 33 -34 52 -37 55 59 21 38 56 -66 0
-13 16 33 -34 52 -37 55 59 -38 60 -66 0
16 33 -34 52 20 37 55 -38 56 60 -66 0
-13 16 33 -18 35 53 -36 -54 61 -20 55 62 0
-13 16 33 -18 -53 -19 36 54 -61 -20 55 -62 0
-13 16 33 18 -35 53 -19 -54 61 -37 55 62 0
-13 16 33 -35 -53 -19 36 54 61 -20 55 64 0
-13 16 33 -18 53 -19 -54 -61 -20 37 55 -64 0
16 33 18 35 53 -19 -36 54 -61 -37 62 -64 0
-13 16 33 -18 53 -19 36 54 -20 -55 -62 -64 0
16 33 35 53 -19 -36 -54 -61 -20 55 62 -64 0
-13 16 33 -35 -53 -19 54 -20 37 55 62 64 0
-13 16 33 -35 53 -19 -54 20 -37 55 62 64 0
-13 16 33 -18 -53 -36 54 20 -37 55 62 64 0
-13 16 33 -18 35 -19 -36 -54 61 -20 37 55 62 0
-13 16 33 -18 35 -19 36 54 61 -20 -37 -55 62 0
-13 16 33 -18 -35 -53 -19 36 61 -20 37 55 64 0
-13 16 33 -18 35 53 -19 36 61 -20 -37 -55 64 0
-13 16 33 -18 -35 -53 -19 36 54 -20 37 62 64 0
-13 16 33 -18 35 53 -19 -36 -54 -20 37 62 64 0
-13 16 33 -18 -35 -53 19 -36 54 20 -37 62 64 0
-13 16 33 -18 53 -19 36 54 61 -38 -56 65 0
-13 16 33 -18 53 -19 -36 54 -61 38 56 -65 0
16 33 35 53 -19 -36 -54 -61 -21 56 63 -65 0
-13 16 33 -18 35 53 -37 -55 62 -21 56 63 0
-13 16 33 -18 35 53 -20 55 62 -38 -56 63 0
-13 16 33 -18 53 -20 -37 55 -62 38 56 -66 0
-13 16 33 -18 53 37 55 -21 -38 56 -63 -66 0
-13 16 33 -18 -35 -53 -20 37 62 -21 38 56 66 0
-13 16 33 -18 35 53 -20 -37 -55 -21 38 63 66 0
-13 16 33 -19 -36 54 37 55 -64 -21 56 -65 0
-13 16 33 -19 54 -20 37 55 64 -38 -56 66 0
16 33 -19 -36 -54 37 55 -64 -21 56 -65 66 0
16 33 -19 -36 -54 -20 55 -64 38 56 -65 66 0
16 33 -19 54 -20 -37 -55 -64 38 56 65 -66 0
-13 16 33 -19 54 -37 -55 -21 38 56 65 66 0
-13 16 33 -19 36 -20 -37 -55 64 -21 38 56 65 0
-13 16 33 -19 -36 -54 20 -37 64 21 -38 56 66 0
-13 -34 -57 -19 -36 -58 -61 -20 -62 -64 0
-13 -34 -18 -19 -36 -58 -61 -59 -62 -64 0
-13 -34 -35 -57 19 -58 -61 -20 -37 -62 -64 0
-13 -34 -18 57 -36 -58 -61 -20 -37 -62 -64 0
-13 -34 -35 -57 -19 -36 -61 -20 59 -62 -64 0
-13 -34 -18 -35 -36 -58 -61 -20 59 -62 -64 0
-13 -34 -18 -35 -36 -58 -61 20 -59 -62 -64 0
-13 -34 18 -57 -19 -36 -61 -37 -59 -62 -64 0
-13 -34 18 35 -57 -19 -36 58 61 -20 59 62 0
-13 -34 -18 35 57 19 -36 -58 61 20 -59 62 0
-13 -34 -18 35 57 19 -58 61 20 -37 -59 62 0
-13 -34 -18 -35 57 19 36 -58 61 -20 59 64 0
-13 -34 18 -35 -57 -19 36 58 61 20 -59 64 0
-13 -34 18 -35 -57 19 -58 -20 37 59 62 64 0
-13 -34 18 -57 19 -36 -58 -20 37 59 62 64 0
-13 -34 -18 57 -19 -36 58 20 37 -59 62 64 0
-13 -34 -18 -35 57 19 -36 -58 61 -20 37 59 62 0
-13 -34 18 -35 -57 19 36 -58 61 -20 -37 59 62 0
-13 -34 18 -35 -57 -19 -36 58 61 20 37 -59 62 0
-13 -34 -18 -35 57 -19 36 58 61 20 -37 -59 62 0
-13 -34 18 -35 -57 -19 -36 58 61 -20 37 59 64 0
-13 -34 18 35 -57 19 -36 -58 61 -20 -37 59 64 0
-13 -34 -18 -35 57 -19 36 58 61 20 37 -59 64 0
-13 -34 -18 -35 57 19 -36 -58 61 20 37 -59 64 0
-13 -34 -18 35 57 -19 -36 58 61 20 -37 -59 64 0
-13 -34 18 -35 -57 -19 36 58 -20 -37 59 62 64 0
-13 -34 -18 35 57 19 -36 -58 -20 -37 59 62 64 0
-13 -34 -18 35 57 19 -36 -58 20 37 -59 62 64 0
-13 -34 18 35 -57 -19 -36 58 20 -37 -59 62 64 0
-13 -34 -18 -35 57 19 36 -58 20 -37 -59 62 64 0
-13 -34 -18 -35 -57 -58 -61 -21 -63 -65 0
-13 -34 -18 -35 -57 -19 -61 -60 -63 -65 0
-13 -34 -57 -19 -61 -21 -38 -60 -63 -65 0
-13 -34 -35 -57 19 -58 -61 -21 -38 -63 -65 0
-13 -34 -18 57 -36 -58 -61 -21 -38 -63 -65 0
-13 -34 18 -57 -36 -58 -61 -21 -38 -63 -65 0
-13 -34 -35 -57 -19 -36 -61 -21 60 -63 -65 0
-13 -34 -18 -35 -36 -58 -61 -21 60 -63 -65 0
-13 -34 -18 -35 -36 -58 -61 21 -60 -63 -65 0
-13 -34 18 -57 -19 -36 -61 -38 -60 -63 -65 0
-13 -34 -18 -35 -19 58 -61 -38 -60 -63 -65 0
-13 -34 -18 -35 19 -58 -61 -38 -60 -63 -65 0
-13 -34 -18 35 57 19 -36 -58 61 21 -60 63 0
-13 -34 -18 -35 57 19 36 -58 61 -21 60 65 0
-13 -34 18 -35 -57 -19 36 58 61 21 -60 65 0
-13 -34 18 -57 -19 36 58 61 21 -38 -60 65 0
-13 -34 18 -35 -57 36 58 -61 21 -38 -63 65 0
-13 -34 -35 57 -19 -36 58 -61 21 38 63 -65 0
-13 -34 -18 -35 57 -19 58 21 38 -60 63 65 0
-13 -34 -18 -35 57 19 -36 -58 61 21 38 -60 65 0
-13 -34 -18 35 57 19 36 -58 61 21 -38 -60 65 0
-13 -34 -18 -35 57 19 36 -58 21 -38 -60 63 65 0
-13 -34 -57 -20 -37 -59 -62 -21 -63 -66 0
-13 -34 -18 -35 -57 -20 -62 -60 -63 -66 0
-13 -34 -57 -20 -62 -21 -38 -60 -63 -66 0
-13 -34 -35 -57 -20 59 -62 -21 -38 -63 -66 0
-13 -34 -18 57 -37 -59 -62 -21 -38 -63 -66 0
-13 -34 18 -57 -37 -59 -62 -21 -38 -63 -66 0
-13 -34 -35 -57 -20 -37 -62 -21 60 -63 -66 0
-13 -34 -35 -57 -20 -37 -62 21 -60 -63 -66 0
-13 -34 -18 -35 -37 -59 -62 21 -60 -63 -66 0
-13 -34 -18 -35 -20 59 -62 -38 -60 -63 -66 0
-13 -34 -18 -35 20 -59 -62 -38 -60 -63 -66 0
-13 -34 -18 -35 57 20 37 -59 62 -21 60 66 0
-13 -34 18 -35 -57 -20 37 59 62 21 -60 66 0
-13 -34 -18 -35 57 -20 59 21 38 -60 63 66 0
-13 -34 -35 57 20 37 62 -21 -38 60 -63 -66 0
-13 -34 -18 -35 57 20 -37 -59 62 -21 38 60 63 0
-13 -34 18 35 -57 20 -37 -59 62 -21 -38 60 66 0
-13 -34 -18 35 57 -20 -37 59 62 21 -38 -60 66 0
-13 -34 -18 35 57 20 -37 -59 21 38 -60 63 66 0
-13 -34 -18 -35 57 20 37 -59 21 -38 -60 63 66 0
-13 -34 -58 -20 -37 -59 -64 -21 -65 -66 0
-13 -34 -19 -36 -58 -20 -64 -60 -65 -66 0
-13 -34 -19 -20 -37 -59 -64 -60 -65 -66 0
-13 -34 -19 -59 -64 -21 -38 -60 -65 -66 0
-13 -34 -36 -58 -20 -37 -64 -21 60 -65 -66 0
-13 -34 -19 -36 -37 -59 -64 -21 60 -65 -66 0
-13 -34 19 -58 -20 -37 -64 -38 -60 -65 -66 0
-13 -34 -19 -36 20 -59 -64 -38 -60 -65 -66 0
-13 -34 19 36 -58 -20 -37 59 64 -21 60 65 0
-13 -34 19 -58 -20 37 59 64 21 -38 -60 66 0
-13 -34 -36 58 20 37 64 -21 -38 60 -65 -66 0
-13 -34 -19 -36 58 20 -37 -59 64 -21 38 60 65 0
-13 -34 19 -36 -58 20 37 -59 64 -21 -38 60 65 0
-13 -34 -19 -36 58 20 -37 -59 64 21 38 -60 66 0
-13 -34 -19 36 58 -20 -37 59 64 21 -38 -60 66 0
-13 -34 -19 -36 58 20 37 59 64 -21 60 -65 -66 0
-13 -34 19 36 -58 -20 -37 59 21 -38 -60 65 66 0
-13 18 -35 -19 61 -20 -37 62 -21 38 -65 0
-13 18 -35 -19 36 -20 -37 62 -21 63 -65 0
-13 -18 35 19 -36 -20 -37 64 -21 -63 65 0
-13 18 -35 -19 36 -20 -37 64 -38 -63 65 0
-13 -18 35 -19 -36 20 -37 64 -21 -63 66 0
-13 18 -35 -19 -36 -20 37 64 -38 -63 66 0
-13 -18 -35 19 -36 61 -20 37 -21 65 -66 0
-13 -18 -35 -19 36 20 -37 62 -21 -65 66 0
-13 -18 -35 -19 36 61 20 -37 -38 65 -66 0
-13 -18 35 19 -36 -20 -37 62 64 -38 -63 65 0
-13 -18 35 19 -36 -37 -62 64 -21 -38 63 65 0
-13 -35 -19 -36 -20 37 -62 64 21 -38 63 65 0
-13 -18 35 -19 -36 61 20 -37 64 -38 -63 66 0
-13 -18 35 -19 61 20 -37 -64 -21 -38 63 66 0
-13 -18 -35 19 -36 61 -20 37 62 -21 -65 66 0
-13 -18 -35 19 -36 61 -20 37 62 -38 65 -66 0
-13 -18 -35 19 36 61 37 -62 -64 -21 -63 65 -66 0
-13 35 -19 -36 -61 20 37 -62 64 -21 -63 -65 66 0
-13 -18 -19 -36 -61 20 37 62 64 38 -63 -65 -66 0
14 15 -39 16 46 17 52 -43 49 54 -58 0
14 15 -39 16 17 41 52 43 -49 -54 58 0
14 15 -39 16 46 17 52 -44 50 55 -59 0
14 15 -39 16 17 41 52 44 -50 -55 59 0
14 15 -39 16 46 17 52 -45 51 56 -60 0
14 15 -39 16 17 41 52 45 -51 -56 60 0
14 15 -39 16 18 42 53 19 -43 49 -61 0
14 15 -39 16 -40 18 -42 53 -43 54 -61 0
14 15 -39 16 18 -42 48 19 43 54 -61 0
14 15 16 -40 18 42 48 19 -43 54 -61 0
14 15 -39 16 -40 -42 53 19 -43 54 -61 0
14 15 -39 16 18 42 53 20 -44 50 -62 0
14 15 16 -40 18 -42 53 20 44 50 -62 0
14 15 -39 16 -40 18 -42 53 -44 55 -62 0
14 15 16 -40 18 42 48 20 -44 55 -62 0
14 15 -39 16 -40 18 -42 48 -45 51 -63 0
14 15 -39 16 -40 -42 48 21 -45 51 -63 0
14 15 -39 16 18 42 53 21 -45 51 -63 0
14 15 -39 16 -40 18 -42 53 -45 56 -63 0
14 15 -39 16 18 -42 48 21 45 56 -63 0
14 15 16 -40 18 42 48 21 -45 56 -63 0
14 15 -39 16 -40 46 -18 -42 53 -45 51 56 63 0
14 15 -39 16 -40 19 -43 49 -44 50 -64 0
14 15 -39 16 -40 -43 49 20 -44 50 -64 0
14 15 -39 16 19 43 54 20 -44 50 -64 0
14 15 16 -40 19 -43 54 20 44 50 -64 0
14 15 -39 16 19 49 54 20 44 -50 -64 0
14 15 -39 16 -40 19 -43 54 -44 55 -64 0
14 15 -39 16 19 -43 49 20 44 55 -64 0
14 15 16 -40 19 43 49 20 -44 55 -64 0
14 15 -39 16 -40 -43 54 20 -44 55 -64 0
14 15 -39 16 19 43 54 21 -45 51 -65 0
14 15 -39 16 -40 19 -43 54 -45 56 -65 0
14 15 -39 16 19 -43 49 21 45 56 -65 0
14 15 -39 16 -40 46 -19 -43 54 -45 51 56 65 0
14 15 -39 16 -40 20 -44 50 -45 51 -66 0
14 15 -39 16 -40 -44 50 21 -45 51 -66 0
14 15 -39 16 20 44 55 21 -45 51 -66 0
14 15 -39 16 -40 20 -44 55 -45 56 -66 0
14 15 -39 16 20 -44 50 21 45 56 -66 0
14 15 -39 16 -40 -44 55 21 -45 56 -66 0
14 15 -39 16 -40 46 -20 -44 55 -45 51 56 66 0
14 15 -39 17 -47 18 42 -48 43 -49 -61 0
14 15 -39 17 -47 42 -48 19 43 -49 -61 0
14 15 -39 17 18 48 57 19 43 -49 -61 0
14 15 -39 17 18 42 -48 19 49 58 -61 0
14 15 -39 17 41 -47 42 -48 57 -19 43 -49 61 0
14 15 -39 17 41 -47 -18 42 -48 43 -49 58 61 0
14 15 -39 17 41 -47 -18 -48 57 43 -49 58 61 0
14 15 -39 17 -47 18 42 -48 44 -50 -62 0
14 15 -39 17 18 48 57 20 44 -50 -62 0
14 15 -39 17 -47 18 -48 57 -50 59 -62 0
14 15 -39 17 18 42 -48 20 50 59 -62 0
14 15 17 -47 18 42 48 20 -50 59 -62 0
14 15 -39 17 -47 -48 57 20 -50 59 -62 0
14 15 -39 17 41 -47 42 -48 57 -20 -50 59 62 0
14 15 -39 17 -47 18 42 -48 45 -51 -63 0
14 15 -39 17 18 48 57 21 45 -51 -63 0
14 15 -39 17 -47 18 -48 57 -51 60 -63 0
14 15 -39 17 18 42 -48 21 51 60 -63 0
14 15 17 -47 18 42 48 21 -51 60 -63 0
14 15 -39 17 -47 -48 57 21 -51 60 -63 0
14 15 -39 17 41 -47 -18 -48 57 45 -51 60 63 0
14 15 -39 17 -47 19 43 -49 44 -50 -64 0
14 15 -39 17 -47 43 -49 20 44 -50 -64 0
14 15 -39 17 19 49 58 20 44 -50 -64 0
14 15 17 -47 19 -49 58 20 44 50 -64 0
14 15 -39 17 19 43 -49 20 50 59 -64 0
14 15 17 -47 19 43 49 20 -50 59 -64 0
14 15 -39 17 -47 -49 58 20 -50 59 -64 0
-39 17 -47 19 43 49 58 20 44 -50 -59 -64 0
14 15 -39 17 -47 19 43 -49 45 -51 -65 0
14 15 -39 17 -47 43 -49 21 45 -51 -65 0
14 15 -39 17 19 49 58 21 45 -51 -65 0
14 15 -39 17 -47 19 -49 58 -51 60 -65 0
14 15 -39 17 19 43 -49 21 51 60 -65 0
14 15 17 -47 19 43 49 21 -51 60 -65 0
14 15 -39 17 -47 -49 58 21 -51 60 -65 0
14 15 -39 17 -47 20 44 -50 45 -51 -66 0
14 15 -39 17 -47 44 -50 21 45 -51 -66 0
14 15 -39 17 20 50 59 21 45 -51 -66 0
14 15 -39 17 -47 20 -50 59 -51 60 -66 0
14 15 -39 17 20 44 -50 21 51 60 -66 0
14 15 -39 -18 -42 19 -43 49 -61 20 -44 -62 0
14 15 -39 18 42 -48 -19 -43 61 20 -50 62 0
14 15 -39 18 -42 -48 19 -43 -61 20 50 -62 0
14 15 -39 18 -42 48 -19 -43 -61 20 -44 -64 0
14 15 -39 18 -48 19 43 -49 61 -20 -44 64 0
14 15 -39 18 42 -48 -19 -49 -61 20 -50 -64 0
14 15 -39 18 -48 -19 -49 -61 20 44 -50 -64 0
14 15 -18 -42 -48 19 -49 -61 20 44 -62 64 0
14 15 -18 -42 -48 19 49 -61 20 -44 -62 64 0
14 15 18 -48 -19 -43 -49 -61 20 44 62 -64 0
14 15 -39 18 42 -48 19 -49 -20 -50 -62 -64 0
14 15 -18 -42 -48 19 -43 -61 20 50 -62 64 0
14 15 18 -42 -19 -43 -49 -61 20 50 62 -64 0
14 15 -39 18 -48 -19 -43 20 44 -50 62 64 0
14 15 -39 18 -42 -19 -49 20 -44 50 62 64 0
14 15 -39 18 -42 19 49 20 -44 -50 -62 -64 0
14 15 18 -48 19 43 61 -20 -44 -50 -62 -64 0
14 15 18 42 19 -49 61 -20 -44 -50 -62 -64 0
14 15 -39 -42 48 -19 -43 -49 61 20 -44 50 62 0
14 15 -39 42 -48 -19 -43 -49 61 20 44 -50 62 0
14 15 -39 -42 48 19 -43 49 61 -20 -44 -50 62 0
14 15 -39 42 -48 19 43 -49 61 -20 -44 -50 62 0
14 15 -39 -18 -42 -48 -43 49 61 20 -44 50 64 0
14 15 -39 18 -42 48 -43 49 61 -20 -44 -50 64 0
14 15 -39 18 42 -48 43 -49 61 -20 -44 -50 64 0
14 15 -39 -18 -42 -48 19 -43 49 -44 50 62 64 0
14 15 -39 18 -42 48 -19 -43 -49 -44 50 62 64 0
14 15 -39 -18 -42 -48 19 43 -49 44 -50 62 64 0
14 15 -39 18 -42 -48 19 49 -61 21 -45 -63 0
14 15 -39 18 -42 48 -19 -43 -61 21 -45 -65 0
14 15 -39 18 -48 19 43 -49 61 -21 -45 65 0
14 15 -39 18 42 -48 -19 -49 -61 21 -51 -65 0
14 15 -18 -42 -48 19 49 -61 21 -45 -63 65 0
14 15 -18 -42 -48 19 43 -61 21 -51 -63 65 0
14 15 18 -42 -19 -43 -49 -61 21 51 63 -65 0
14 15 -39 -18 -42 -48 19 -43 49 -45 51 63 65 0
14 15 -39 -18 -42 -48 19 43 -49 45 -51 63 65 0
14 15 -39 18 -42 -48 20 -50 -62 21 45 -63 0
14 15 -39 18 -42 -48 20 50 -62 21 -45 -63 0
14 15 18 -48 -20 -44 -50 -62 21 45 63 -66 0
14 15 -18 -42 -48 20 44 -62 21 -51 -63 66 0
14 15 18 42 -20 -44 -50 -62 21 -51 63 -66 0
14 15 18 48 20 -44 62 -21 -45 -51 -63 -66 0
14 15 -39 -18 -42 -48 20 -44 50 -45 51 63 66 0
14 15 -39 -19 -49 20 44 -50 -64 21 -51 -65 0
14 15 -39 -19 -49 20 -44 50 64 21 -45 66 0
14 15 -19 -43 -49 20 44 -64 21 -51 -65 66 0
14 15 19 43 -20 -44 -50 -64 21 -51 65 -66 0
14 15 -39 19 -49 20 44 21 -45 -51 -65 -66 0
14 15 19 49 20 -44 64 -21 -45 -51 -65 -66 0
-40 17 41 52 -42 53 57 21 45 60 -63 0
14 16 -40 18 -42 53 -19 -54 61 20 -44 62 0
14 16 -40 18 42 -53 19 -54 61 -20 -44 62 0
14 16 -40 18 42 -53 -19 -43 61 20 -55 62 0
14 16 -40 18 -42 19 -43 54 61 -20 -55 64 0
14 16 -40 -18 -53 19 -43 20 -44 55 62 64 0
14 16 -40 18 -42 -19 -54 20 -44 55 62 64 0
14 16 -40 -18 -42 19 -54 20 44 -55 62 64 0
14 16 -40 18 -42 19 54 20 -44 -55 -62 -64 0
14 16 -40 18 42 19 -54 20 -44 -55 -62 -64 0
14 16 18 -53 19 43 61 -20 -44 -55 -62 -64 0
14 16 18 53 19 -43 61 -20 -44 -55 -62 -64 0
14 16 -40 42 -53 -19 -43 -54 61 20 44 -55 62 0
14 16 -40 -42 53 19 -43 54 61 -20 -44 -55 62 0
14 16 -40 -18 -42 -53 -43 54 61 20 -44 55 64 0
14 16 -40 18 42 -53 43 -54 61 -20 -44 -55 64 0
14 16 -40 18 42 -53 -19 -43 -54 44 -55 62 64 0
14 16 -40 18 -53 -19 -54 -61 21 45 -56 -65 0
14 16 18 42 -19 -43 -54 -61 21 -56 63 -65 0
14 16 -40 -18 -42 19 -54 21 45 -56 63 65 0
14 16 -40 18 42 -53 -19 -43 -54 45 -56 63 65 0
14 16 -40 18 42 -53 -20 -55 -62 21 -56 -66 0
14 16 -40 18 42 -53 20 -55 -21 -56 -63 -66 0
14 16 -18 -42 -53 20 44 -62 21 -56 -63 66 0
14 16 -40 19 -43 54 -20 -55 64 21 -45 65 0
14 16 -40 19 43 -54 20 -55 64 -21 -45 65 0
14 16 -40 -19 -54 20 -44 55 64 21 -45 66 0
14 16 -40 19 -54 20 44 -55 64 -21 -45 66 0
14 16 -40 19 43 20 -44 -55 -64 21 -56 -66 0
14 16 19 43 54 20 -44 -55 -64 -45 65 -66 0
14 16 19 -43 20 55 64 -21 -45 -56 -65 -66 0
14 16 19 43 20 -55 64 -21 -45 -56 -65 -66 0
14 16 -40 -43 54 -20 -44 -55 64 21 -45 56 65 0
14 17 41 18 19 58 61 20 44 62 0
14 17 41 42 43 58 61 20 44 62 0
14 17 41 18 19 43 61 20 59 62 0
14 17 41 42 19 43 61 44 59 62 0
14 17 41 18 57 19 61 20 44 64 0
14 17 41 42 57 43 61 20 44 64 0
14 17 41 18 42 19 61 20 59 64 0
14 17 41 18 42 43 61 44 59 64 0
14 17 41 18 57 19 43 20 62 64 0
14 17 41 42 57 19 43 44 62 64 0
14 17 41 18 42 43 58 44 62 64 0
14 17 41 18 57 -43 58 61 20 44 62 0
14 17 41 42 57 19 43 61 -20 59 62 0
14 17 41 18 42 43 -58 61 20 59 62 0
14 17 41 18 42 43 58 61 20 -59 62 0
14 17 41 18 57 19 43 61 -44 59 62 0
14 17 41 18 42 19 -58 61 44 59 62 0
14 17 41 18 42 19 58 61 44 -59 62 0
14 17 41 -42 57 19 58 61 20 44 64 0
14 17 41 -18 57 43 58 61 20 44 64 0
14 17 41 18 57 43 58 61 -20 44 64 0
14 17 41 42 -57 19 43 61 20 59 64 0
14 17 41 42 57 19 43 61 20 -59 64 0
14 17 41 -18 42 43 58 61 20 59 64 0
14 17 41 18 -57 19 43 61 44 59 64 0
14 17 41 18 42 19 58 61 -44 59 64 0
14 17 41 42 -57 19 58 20 44 62 64 0
14 17 41 42 57 19 -58 20 44 62 64 0
14 17 41 18 -57 43 58 20 44 62 64 0
14 17 41 18 57 43 -58 20 44 62 64 0
14 17 41 -42 57 19 43 20 59 62 64 0
14 17 41 18 -42 43 58 20 59 62 64 0
14 17 41 18 42 -43 58 20 59 62 64 0
14 17 41 -18 57 19 43 44 59 62 64 0
14 17 41 -18 42 19 58 44 59 62 64 0
14 17 41 18 42 -19 58 44 59 62 64 0
14 17 18 42 -19 -43 -58 -61 20 -59 62 -64 0
14 17 41 18 57 19 61 21 45 65 0
14 17 41 42 57 -19 58 61 21 45 63 0
14 17 41 42 57 19 43 61 -21 60 63 0
14 17 41 18 42 43 -58 61 21 60 63 0
14 17 41 18 42 43 58 61 21 -60 63 0
14 17 41 42 -57 19 43 61 21 60 65 0
14 17 41 18 -57 19 43 61 45 60 65 0
14 17 41 18 57 19 43 61 45 -60 65 0
14 17 41 42 57 59 62 21 60 66 0
14 17 41 18 42 44 59 45 63 66 0
14 17 41 -42 57 20 59 62 21 45 66 0
14 17 41 42 -57 20 44 62 21 60 66 0
14 17 41 42 57 20 44 62 21 -60 66 0
14 17 41 18 -57 20 44 62 45 60 66 0
14 17 41 18 57 20 44 62 45 -60 66 0
14 17 41 42 57 20 -59 21 45 63 66 0
14 17 41 -42 57 20 44 21 60 63 66 0
14 17 18 -42 -57 -44 -62 21 45 60 -63 66 0
14 17 18 42 57 -44 62 21 -45 -60 -63 -66 0
14 17 41 43 20 44 64 45 60 65 0
14 17 41 43 58 44 64 21 45 66 0
14 17 41 19 43 44 64 45 60 66 0
14 17 41 19 43 20 59 21 65 66 0
14 17 41 19 43 44 59 45 65 66 0
14 17 41 43 58 -20 59 64 21 45 65 0
14 17 41 43 58 20 44 64 -21 60 65 0
14 17 41 19 43 44 -59 64 21 60 65 0
14 17 41 19 43 44 59 64 21 -60 65 0
14 17 41 19 43 20 -59 64 45 60 65 0
14 17 41 43 -58 20 44 64 21 60 66 0
14 17 41 43 58 20 44 64 21 -60 66 0
14 17 41 -19 43 44 59 64 21 60 66 0
14 17 41 19 -58 20 44 64 45 60 66 0
14 17 41 19 58 44 -59 21 45 65 66 0
14 17 41 19 43 -44 59 21 60 65 66 0
14 17 41 -19 58 20 44 45 60 65 66 0
14 17 41 19 43 -20 59 45 60 65 66 0
14 41 -19 -43 -58 44 -59 -64 21 45 -65 66 0
14 -18 -42 19 43 20 62 64 45 63 65 0
14 18 42 -19 -43 61 -20 -62 -64 63 -66 0
14 18 42 -19 -43 61 -44 -62 -64 63 -66 0
14 -18 -19 -43 -61 20 44 -62 64 -63 66 0
14 -42 -19 -43 -61 20 44 -62 64 -63 66 0
14 -18 -42 43 61 20 44 64 21 63 66 0
14 18 -42 43 -61 20 44 64 21 63 66 0
14 -18 -42 19 61 20 44 64 45 63 66 0
14 18 42 19 61 -20 -44 64 45 63 66 0
14 18 42 19 61 -20 44 -64 45 63 66 0
14 -18 -42 -19 -61 20 44 62 -64 -65 66 0
14 -18 -42 -43 -61 20 44 62 -64 -65 66 0
14 42 -19 -43 61 20 44 62 21 65 66 0
14 42 19 43 61 -20 -44 62 21 65 66 0
14 18 -19 -43 61 20 44 62 45 65 66 0
14 18 -19 43 -61 20 44 62 45 65 66 0
14 18 19 43 61 -20 -44 62 45 65 66 0
14 19 43 61 -20 -62 -64 -21 -45 65 -66 0
14 19 43 61 -20 -44 64 -21 -63 -65 -66 0
14 -19 -43 20 44 62 64 -21 -63 -65 -66 0
14 19 43 61 -20 -44 64 -45 -63 -65 -66 0
14 -19 -43 20 44 62 64 -45 -63 -65 -66 0
14 -18 -42 -20 -62 -64 21 45 63 65 -66 0
16 46 -47 52 48 53 -57 20 55 59 -62 0
15 16 17 -47 18 48 53 21 -51 60 -63 0
15 16 17 -47 20 55 59 21 51 -60 -66 0
15 16 46 18 19 54 61 20 50 62 0
15 16 46 48 49 54 61 20 50 62 0
15 16 46 18 19 49 61 20 55 62 0
15 16 46 18 53 19 61 20 50 64 0
15 16 46 48 53 49 61 20 50 64 0
15 16 46 18 48 19 61 20 55 64 0
15 16 46 18 48 49 61 50 55 64 0
15 16 46 18 53 19 49 20 62 64 0
15 16 46 18 48 19 54 20 62 64 0
15 16 46 48 53 19 49 50 62 64 0
15 16 46 18 48 49 54 50 62 64 0
15 16 46 48 53 19 54 61 -20 50 62 0
15 16 46 18 53 -49 54 61 20 50 62 0
15 16 46 48 53 19 49 61 -20 55 62 0
15 16 46 18 53 19 49 61 -50 55 62 0
15 16 46 18 48 19 -54 61 50 55 62 0
15 16 46 18 48 19 54 61 50 -55 62 0
15 16 46 -48 53 19 54 61 20 50 64 0
15 16 46 -18 53 49 54 61 20 50 64 0
15 16 46 48 -53 19 49 61 20 55 64 0
15 16 46 48 53 19 49 61 20 -55 64 0
15 16 46 18 48 49 54 61 -20 55 64 0
15 16 46 18 -53 19 49 61 50 55 64 0
15 16 46 18 53 19 49 61 50 -55 64 0
15 16 46 18 -48 19 54 61 50 55 64 0
15 16 46 48 -53 19 54 20 50 62 64 0
15 16 46 48 53 19 -54 20 50 62 64 0
15 16 46 18 -53 49 54 20 50 62 64 0
15 16 46 18 53 49 -54 20 50 62 64 0
15 16 46 -48 53 19 49 20 55 62 64 0
15 16 46 18 -48 49 54 20 55 62 64 0
15 16 46 -18 53 19 49 50 55 62 64 0
15 16 46 18 53 -19 49 50 55 62 64 0
15 16 46 18 48 -19 54 50 55 62 64 0
16 46 -18 19 49 54 61 -20 -50 55 -62 -64 0
15 16 46 18 19 49 61 21 56 63 0
15 16 46 18 53 19 49 21 63 65 0
15 16 46 48 53 19 49 51 63 65 0
15 16 46 18 48 19 54 61 51 -56 63 0
15 16 46 -48 53 19 49 21 56 63 65 0
15 16 46 53 20 55 62 51 56 63 0
15 16 46 18 53 20 62 21 51 66 0
15 16 46 18 53 20 50 21 63 66 0
15 16 46 18 48 20 55 21 63 66 0
15 16 46 48 53 20 50 51 63 66 0
15 16 46 18 48 20 55 62 51 -56 63 0
15 16 46 48 -53 20 50 62 21 56 66 0
15 16 46 18 53 20 50 62 51 -56 66 0
15 16 46 48 -53 20 55 21 51 63 66 0
15 16 -48 20 -50 -55 -62 21 51 56 63 -66 0
15 16 46 19 20 50 64 21 56 65 0
15 16 46 54 20 55 64 51 56 65 0
15 16 46 49 54 50 64 21 51 66 0
15 16 46 19 49 20 64 21 56 66 0
15 16 46 19 54 20 50 21 65 66 0
15 16 46 19 49 20 55 21 65 66 0
15 16 46 19 54 -50 55 64 21 51 65 0
15 16 46 19 49 50 -55 64 21 56 65 0
15 16 46 19 49 20 -55 64 51 56 65 0
15 16 46 19 -54 20 50 64 51 56 66 0
15 16 46 19 54 20 50 64 51 -56 66 0
15 16 46 19 -54 50 55 21 51 65 66 0
15 16 19 -54 -20 -50 -55 -64 21 51 65 -66 0
15 46 -19 49 -20 -50 -55 -64 51 56 65 -66 0
15 46 19 49 54 -20 64 -21 51 -56 -65 -66 0
15 17 -47 18 -48 57 -19 -58 61 20 -50 62 0
15 17 -47 18 48 -57 19 -58 61 -20 -50 62 0
15 17 -47 18 -48 -57 19 -58 -61 20 50 -62 0
15 17 -47 18 48 -57 -19 -49 61 20 -59 62 0
15 17 -47 18 -57 19 49 -58 61 -20 -50 64 0
15 17 -47 18 -57 19 -49 -58 -61 20 50 -64 0
15 17 -47 -18 -48 19 49 -58 61 20 -59 64 0
15 17 -47 18 -48 -19 -49 -61 20 -50 59 -64 0
15 17 18 -57 -19 -49 -58 -61 20 50 62 -64 0
15 17 18 -48 -19 -49 -58 -61 20 59 62 -64 0
15 17 -47 18 -57 -19 -49 20 50 -59 62 64 0
15 17 -47 18 -57 19 49 20 -50 -59 -62 -64 0
15 17 -47 18 -48 -19 -58 20 -50 59 62 64 0
15 17 -47 -18 -48 19 -58 20 50 -59 62 64 0
15 17 18 -48 -57 -49 -61 20 50 59 -62 64 0
15 17 -47 48 -57 -19 -49 -58 61 20 50 -59 62 0
15 17 -47 48 -57 19 49 -58 61 -20 -50 -59 62 0
15 17 -47 -18 -48 -57 49 -58 61 20 50 -59 64 0
15 17 -47 18 48 -57 49 -58 61 -20 -50 -59 64 0
15 17 -47 -18 -48 -57 19 49 -58 50 -59 62 64 0
15 17 -47 18 48 -57 -19 -49 -58 50 -59 62 64 0
15 17 -47 18 -48 -57 19 49 -61 21 -60 -63 0
15 17 -47 18 -57 19 -49 -58 -61 21 51 -65 0
15 17 -47 18 -57 -19 -58 -61 21 51 -60 -65 0
15 17 -18 -48 -57 19 -58 -61 21 51 -63 65 0
15 17 -47 18 48 -57 19 -58 -21 -60 -63 -65 0
15 17 -47 18 -57 -19 -49 21 51 -60 63 65 0
15 17 -47 -18 -48 19 -58 21 51 -60 63 65 0
15 17 18 -48 -57 -49 -61 21 51 60 -63 65 0
15 17 -47 18 48 -57 49 -58 61 -21 -51 -60 65 0
15 17 -47 18 -48 -57 20 -59 -62 21 51 -63 0
15 17 -47 18 -48 -57 20 50 -62 21 -60 -63 0
15 17 -47 18 -57 20 50 -59 62 -21 -51 66 0
15 17 -47 -18 -48 20 50 -59 62 21 -60 66 0
15 17 -47 18 -57 -20 -59 -62 21 51 -60 -66 0
15 17 18 -57 -20 -50 -59 -62 21 51 63 -66 0
15 17 -47 18 48 -57 20 -59 -21 -60 -63 -66 0
15 17 -47 18 -57 20 50 -59 -21 -60 -63 -66 0
15 17 -18 -48 -57 20 50 -62 21 -60 -63 66 0
15 17 18 48 -20 -50 -59 -62 21 -60 63 -66 0
15 17 18 -48 -57 -59 -62 21 51 60 -63 66 0
15 17 -47 19 49 -58 20 -59 64 -21 -51 65 0
15 17 -47 19 -58 20 50 -59 64 -21 -51 66 0
15 17 -47 19 -58 20 -50 -59 -64 21 51 -66 0
15 17 19 -58 -20 -50 -59 -64 21 51 65 -66 0
15 17 19 49 -20 -50 -59 -64 21 -60 65 -66 0
15 17 -47 19 -58 -20 -50 21 51 -60 65 66 0
15 17 -47 19 49 20 -59 21 -51 -60 -65 -66 0
15 -48 19 49 -61 -20 -50 -62 64 -63 65 0
15 -18 -48 19 49 50 62 64 21 63 65 0
15 18 48 -19 -49 50 62 64 21 63 65 0
15 -18 -48 19 49 20 62 64 51 63 65 0
15 18 48 -19 -49 20 62 64 51 63 65 0
15 18 49 20 50 62 64 21 -51 63 -65 0
15 -48 -19 -49 -61 20 50 -62 64 -63 66 0
15 -18 -48 19 61 20 50 64 51 63 66 0
15 -18 -48 19 49 61 -20 -62 -64 65 -66 0
15 -18 -48 19 49 61 -50 -62 -64 65 -66 0
15 -18 -48 -49 -61 20 50 62 -64 -65 66 0
15 48 -19 -49 61 20 50 62 21 65 66 0
15 19 49 61 -20 -50 64 -21 -63 -65 -66 0
15 -19 -49 20 50 62 64 -21 -63 -65 -66 0
15 -19 -61 -20 -50 -64 21 51 63 -65 66 0
15 -18 -48 -20 -62 -64 21 51 63 65 -66 0
16 17 52 53 54 58 61 20 55 62 0
16 17 52 53 19 54 61 55 59 62 0
16 17 52 53 57 54 61 20 55 64 0
16 17 52 18 53 19 61 20 59 64 0
16 17 52 53 57 58 61 20 59 64 0
16 17 52 18 53 54 61 55 59 64 0
16 17 52 18 53 19 58 20 62 64 0
16 17 52 53 57 19 54 55 62 64 0
16 17 52 53 57 19 58 59 62 64 0
16 17 52 18 57 54 58 59 62 64 0
16 17 52 53 57 -19 58 61 20 55 62 0
16 17 52 18 57 -54 58 61 20 55 62 0
16 17 52 18 57 54 58 61 20 -55 62 0
16 17 52 53 57 -19 54 61 20 59 62 0
16 17 52 53 57 19 54 61 -20 59 62 0
16 17 52 18 53 54 58 61 20 -59 62 0
16 17 52 18 57 19 -54 61 55 59 62 0
16 17 52 18 53 19 -58 61 55 59 62 0
16 17 52 18 53 19 58 61 55 -59 62 0
16 17 52 -53 57 19 58 61 20 55 64 0
16 17 52 -18 57 54 58 61 20 55 64 0
16 17 52 18 57 54 58 61 -20 55 64 0
16 17 52 53 57 19 54 61 20 -59 64 0
16 17 52 -18 53 54 58 61 20 59 64 0
16 17 52 18 53 54 58 61 -20 59 64 0
16 17 52 18 -57 19 54 61 55 59 64 0
16 17 52 18 57 19 54 61 55 -59 64 0
16 17 52 18 -53 19 58 61 55 59 64 0
16 17 52 18 53 19 58 61 -55 59 64 0
16 17 52 53 57 19 -58 20 55 62 64 0
16 17 52 18 -57 54 58 20 55 62 64 0
16 17 52 18 57 54 -58 20 55 62 64 0
16 17 52 53 57 19 -54 20 59 62 64 0
16 17 52 18 -53 54 58 20 59 62 64 0
16 17 52 -18 57 19 54 55 59 62 64 0
16 17 52 18 57 -19 54 55 59 62 64 0
16 17 52 -18 53 19 58 55 59 62 64 0
16 17 52 18 53 -19 58 55 59 62 64 0
16 52 -18 53 54 58 61 -20 -55 -59 -62 -64 0
16 17 52 57 54 58 61 21 60 63 0
16 17 52 18 57 54 58 60 63 65 0
16 17 52 53 57 -19 58 61 21 56 63 0
16 17 52 -18 57 54 58 61 21 56 65 0
16 17 52 18 57 54 58 61 -21 56 65 0
16 17 52 -18 53 54 58 61 21 60 65 0
16 17 52 53 57 19 -58 21 56 63 65 0
16 17 52 18 -57 54 58 21 56 63 65 0
16 17 52 57 55 59 62 21 60 63 0
16 17 52 18 53 20 62 21 60 66 0
16 17 52 53 57 59 62 21 60 66 0
16 17 52 53 57 20 55 56 63 66 0
16 17 52 18 53 55 59 56 63 66 0
16 17 52 18 57 55 59 60 63 66 0
16 17 52 53 57 -20 55 62 21 60 63 0
16 17 52 53 57 20 55 62 -21 60 63 0
16 17 52 -18 53 55 59 62 21 60 66 0
16 17 52 18 -57 55 59 21 56 63 66 0
16 17 52 53 57 20 -55 21 60 63 66 0
16 17 52 54 55 59 64 21 56 65 0
16 17 52 58 55 59 64 21 60 65 0
16 17 52 54 58 59 64 21 60 66 0
16 17 52 19 58 55 59 60 65 66 0
16 17 52 54 58 -20 59 64 21 56 65 0
16 17 52 54 58 -20 55 64 21 60 65 0
16 17 52 54 58 20 55 64 -21 60 65 0
16 17 52 19 54 55 59 64 21 -60 65 0
16 17 52 -19 58 55 59 64 21 56 66 0
16 17 52 54 58 20 55 64 21 -60 66 0
16 17 52 -19 54 55 59 64 21 60 66 0
16 17 52 19 54 55 59 64 -21 60 66 0
16 17 52 19 -54 20 59 64 56 60 66 0
16 17 52 19 54 20 59 64 -56 60 66 0
16 17 19 58 -20 -55 -59 -64 21 -56 65 -66 0
16 52 -19 54 -58 -59 -64 21 56 60 -65 66 0
16 17 -58 20 -55 -59 -64 21 56 60 65 -66 0
16 -18 19 54 -61 -20 -55 -62 64 -63 65 0
16 -53 -19 54 61 -20 -55 -62 -64 -21 -66 0
16 18 53 -19 -54 61 -20 -62 -64 63 -66 0
16 -18 -53 -54 -61 20 55 62 -64 -65 66 0
16 -53 19 -54 -20 -55 -62 -64 -21 65 -66 0
16 -19 -54 20 55 62 64 -21 -63 -65 -66 0
16 -53 19 -54 -20 64 -21 -56 -63 -65 -66 0
16 -18 -19 54 -55 64 -21 -56 -63 -65 -66 0
16 -18 -54 -20 55 64 -21 -56 -63 -65 -66 0
17 -57 19 58 -61 -20 -59 -62 64 -63 65 0
17 18 57 -19 58 59 62 64 21 63 -65 0
17 18 58 -20 -59 62 64 21 60 63 65 0
17 -18 -19 -58 -61 20 59 -62 64 -63 66 0
17 18 -19 -58 61 59 64 21 60 63 66 0
17 -18 -57 -19 -61 20 59 62 -64 -65 66 0
17 -18 -19 -58 -61 -20 59 -64 -60 -65 66 0
17 -57 -19 -58 -61 -20 -64 21 -60 -65 66 0
17 19 58 61 -20 -59 64 -21 -63 -65 -66 0
17 -57 19 -58 -20 64 -21 -60 -63 -65 -66 0
17 -18 -58 -20 59 64 -21 -60 -63 -65 -66 0
22 31 24 32 33 -40 46 -27 -42 48 53 0
22 23 31 24 32 33 -40 28 43 -49 -54 0
22 31 24 32 33 -40 46 -28 -43 49 54 0
22 23 31 24 32 33 -40 29 44 -50 -55 0
22 23 31 24 32 33 -40 30 45 -51 -56 0
22 31 24 32 33 -40 46 -30 -45 51 56 0
22 23 31 24 32 26 -47 35 -42 48 -57 0
22 23 31 24 26 41 -47 -35 42 -48 57 0
22 23 31 24 32 26 -47 36 -43 49 -58 0
22 23 31 24 26 41 -47 -36 43 -49 58 0
22 23 31 24 32 26 -47 37 -44 50 -59 0
22 23 31 24 32 26 -47 38 -45 51 -60 0
22 31 32 -39 35 -42 48 29 37 44 -62 0
22 23 24 -39 27 42 -48 30 38 51 -63 0
22 -25 33 -40 26 -34 27 42 -53 57 0
22 -25 33 -40 26 -34 28 43 -54 58 0
22 -25 33 -40 26 -34 30 45 -56 60 0
22 31 33 -40 35 -42 53 28 36 43 -61 0
22 31 -25 33 -40 27 35 -53 28 -54 -61 0
22 31 33 -40 35 42 -53 28 36 54 -61 0
22 31 -25 33 -40 35 42 -53 43 -54 -61 0
22 31 33 -40 27 35 53 36 43 -54 -61 0
22 31 -25 33 -40 42 -53 36 43 -54 -61 0
22 31 -25 33 -40 27 -53 29 37 -55 -62 0
22 31 33 -40 35 42 -53 29 37 55 -62 0
22 31 -25 33 -40 35 42 -53 44 -55 -62 0
22 31 -25 33 27 35 -53 37 44 55 -62 0
22 31 33 -40 27 35 53 37 44 -55 -62 0
22 31 -25 33 -40 42 -53 37 44 -55 -62 0
22 23 31 -25 33 -40 27 42 -53 29 -37 -55 62 0
22 31 33 -40 35 -42 53 30 38 45 -63 0
22 31 -25 33 -40 27 35 -53 30 -56 -63 0
22 31 -25 33 -40 27 -53 30 38 -56 -63 0
22 31 33 -40 35 42 -53 30 38 56 -63 0
22 31 -25 33 -40 28 36 -54 29 -55 -64 0
22 31 -25 33 -40 28 -54 29 37 -55 -64 0
22 31 -25 33 36 43 54 29 37 -55 -64 0
22 31 33 -40 36 43 -54 29 37 55 -64 0
22 31 -25 33 28 36 -54 37 44 55 -64 0
22 31 33 -40 28 36 54 37 44 -55 -64 0
22 31 -25 33 -40 43 -54 37 44 -55 -64 0
22 23 31 -25 33 -40 28 43 -54 29 -37 -55 64 0
22 23 31 -25 33 -40 -36 43 -54 29 44 -55 64 0
22 31 -25 33 36 43 54 30 38 -56 -65 0
22 31 33 -40 36 43 -54 30 38 56 -65 0
22 31 -25 33 -40 36 43 -54 45 -56 -65 0
22 31 33 -40 28 36 54 38 45 -56 -65 0
22 31 -25 33 -40 43 -54 38 45 -56 -65 0
22 -25 -40 -36 43 54 30 38 45 -56 65 0
22 31 -25 33 -40 29 37 -55 30 -56 -66 0
22 31 33 -40 37 44 -55 30 38 56 -66 0
22 31 -25 33 -40 37 44 -55 45 -56 -66 0
22 31 -25 33 29 37 -55 38 45 56 -66 0
22 31 33 -40 29 37 55 38 45 -56 -66 0
22 31 -25 33 -40 44 -55 38 45 -56 -66 0
22 23 31 -25 33 -40 29 -37 -55 30 45 -56 66 0
23 31 -34 41 28 43 58 37 44 -59 -64 0
23 31 -34 41 -36 43 58 30 38 45 -65 0
23 31 -34 41 36 43 -58 30 45 60 -65 0
22 23 26 -34 29 -37 59 30 38 45 -66 0
23 31 -34 41 -37 44 59 30 38 45 -66 0
22 23 31 35 36 43 61 29 37 62 0
22 23 31 42 36 43 61 29 44 62 0
22 23 31 35 28 36 61 37 44 62 0
22 23 31 42 28 43 61 37 44 62 0
22 23 31 35 42 36 61 29 37 64 0
22 23 31 35 42 43 61 29 44 64 0
22 23 31 27 35 36 61 37 44 64 0
22 23 31 27 42 43 61 37 44 64 0
22 23 31 35 42 28 36 37 62 64 0
22 23 31 27 35 36 43 37 62 64 0
22 23 31 35 42 28 43 44 62 64 0
22 23 31 27 42 36 43 44 62 64 0
22 23 31 35 42 -28 43 61 29 37 62 0
22 23 31 35 42 28 43 61 -29 37 62 0
22 23 31 27 42 -36 43 61 29 37 62 0
22 23 31 27 42 36 43 61 29 -37 62 0
22 23 31 35 42 -28 36 61 29 44 62 0
22 23 31 27 35 36 43 61 29 -44 62 0
22 23 31 27 42 28 -36 61 37 44 62 0
22 23 31 27 42 28 36 61 -37 44 62 0
22 23 31 27 35 28 -43 61 37 44 62 0
22 23 31 35 42 28 43 61 29 -37 64 0
22 23 31 -27 42 36 43 61 29 37 64 0
22 23 31 27 42 36 43 61 -29 37 64 0
22 23 31 35 42 28 36 61 29 -44 64 0
22 23 31 -27 35 36 43 61 29 44 64 0
22 23 31 27 -42 28 36 61 37 44 64 0
22 23 31 27 42 28 36 61 37 -44 64 0
22 23 31 27 -35 28 43 61 37 44 64 0
22 23 31 35 -42 28 43 29 37 62 64 0
22 23 31 35 42 28 -43 29 37 62 64 0
22 23 31 27 -42 36 43 29 37 62 64 0
22 23 31 35 42 28 -36 29 44 62 64 0
22 23 31 27 -35 36 43 29 44 62 64 0
22 23 31 27 35 -36 43 29 44 62 64 0
22 23 31 -27 42 28 36 37 44 62 64 0
22 23 31 27 42 -28 36 37 44 62 64 0
22 23 31 -27 35 28 43 37 44 62 64 0
22 23 31 27 35 -28 43 37 44 62 64 0
22 23 -35 28 36 43 61 29 -37 -44 -62 -64 0
22 23 31 27 35 36 61 38 45 65 0
22 23 31 35 42 28 43 45 63 65 0
22 23 31 -27 42 36 43 61 30 38 65 0
22 23 31 -27 35 36 43 61 30 45 65 0
22 23 31 27 35 36 43 61 -30 45 65 0
22 23 31 35 42 28 -36 30 45 63 65 0
22 23 31 42 37 44 62 30 45 63 0
22 23 31 27 35 37 44 38 63 66 0
22 23 31 27 42 37 44 45 63 66 0
22 23 31 35 42 29 37 62 -30 45 63 0
22 23 31 -27 35 37 44 62 30 45 66 0
22 23 31 27 35 37 44 62 -30 45 66 0
22 23 31 35 42 29 -44 30 38 63 66 0
23 31 -27 -35 42 -37 -62 30 38 45 -63 66 0
22 31 35 42 -29 37 62 -30 -38 -45 -63 -66 0
22 23 31 43 37 44 64 30 45 65 0
22 23 31 36 43 37 64 30 38 66 0
22 23 31 28 43 44 64 38 45 66 0
22 23 31 36 43 29 44 45 65 66 0
22 23 31 28 43 37 44 45 65 66 0
22 23 31 36 43 -29 44 64 30 38 65 0
22 23 31 36 43 29 44 64 -30 38 65 0
22 23 31 28 43 37 44 64 30 -38 65 0
22 23 31 36 43 -29 37 64 30 45 65 0
22 23 31 36 43 29 44 64 30 -38 66 0
22 23 31 -28 43 37 44 64 30 38 66 0
22 23 31 -28 36 37 44 64 30 45 66 0
22 23 31 28 36 37 44 64 -30 45 66 0
22 23 31 28 -36 37 44 30 45 65 66 0
23 31 -28 -36 -43 -29 44 -64 38 45 -65 66 0
22 23 28 36 29 -44 64 -30 -38 -45 -65 -66 0
23 31 -28 43 37 44 64 -30 -38 -45 -65 -66 0
23 31 -28 29 37 44 64 -30 -38 45 -65 -66 0
22 23 -36 29 37 44 64 30 -38 -45 -65 -66 0
24 32 -25 46 35 48 53 28 49 -54 -61 0
22 32 -25 33 27 35 -53 36 49 54 -61 0
24 32 -25 46 28 36 49 -29 50 55 -64 0
22 32 -25 33 -29 37 55 30 38 51 -66 0
24 32 -25 46 37 50 55 30 51 -56 -66 0
22 24 26 -34 27 -35 57 28 36 49 -61 0
22 24 26 -47 27 -48 57 28 36 49 -61 0
22 24 26 -34 -47 27 35 -57 36 -58 -61 0
22 24 26 -34 -47 35 -57 28 36 -58 -61 0
22 24 26 -47 27 48 -57 28 36 58 -61 0
22 24 26 -34 -47 27 48 -57 49 -58 -61 0
22 24 26 -34 27 35 -57 28 49 58 -61 0
22 24 26 -47 27 35 57 28 49 -58 -61 0
22 24 26 -34 -47 35 -57 29 37 -59 -62 0
24 -34 -47 27 35 48 -57 -29 37 59 62 0
22 24 26 -34 -47 27 48 -57 50 -59 -62 0
22 24 26 -47 27 35 57 29 50 -59 -62 0
22 24 26 -34 -47 48 -57 29 50 -59 -62 0
22 24 32 26 -34 -47 35 48 -57 -29 37 -59 62 0
22 24 26 -34 -47 27 35 -57 38 -60 -63 0
22 24 26 -34 -47 27 48 -57 51 -60 -63 0
22 24 26 -34 -47 48 -57 30 51 -60 -63 0
22 24 26 -47 28 -49 58 29 37 50 -64 0
22 24 26 -34 -47 28 36 -58 37 -59 -64 0
22 24 26 -34 -47 36 -58 29 37 -59 -64 0
22 24 26 -34 28 49 58 29 37 -59 -64 0
22 24 26 -47 28 49 -58 29 37 59 -64 0
22 24 26 -34 28 36 -58 29 50 59 -64 0
22 24 26 -47 28 36 58 29 50 -59 -64 0
22 24 26 -34 -47 49 -58 29 50 -59 -64 0
22 24 32 26 -34 -47 -28 36 -58 37 50 -59 64 0
22 24 26 -47 28 -49 58 30 38 51 -65 0
22 24 26 -34 -47 28 36 -58 38 -60 -65 0
22 24 26 -34 -47 36 -58 30 38 -60 -65 0
22 24 26 -47 28 49 -58 30 38 60 -65 0
22 24 26 -34 -47 28 49 -58 51 -60 -65 0
22 24 26 -34 28 36 -58 30 51 60 -65 0
22 24 26 -47 28 36 58 30 51 -60 -65 0
22 24 26 -34 -47 49 -58 30 51 -60 -65 0
22 24 26 -34 -47 29 37 -59 38 -60 -66 0
22 24 26 -34 -47 37 -59 30 38 -60 -66 0
22 24 26 -34 29 50 59 30 38 -60 -66 0
22 24 26 -34 -47 29 50 -59 51 -60 -66 0
22 24 26 -47 29 37 59 30 51 -60 -66 0
22 24 26 -34 -47 50 -59 30 51 -60 -66 0
22 24 32 27 28 49 61 29 37 62 0
22 24 32 48 28 49 61 37 50 62 0
22 24 32 27 35 28 61 29 50 64 0
22 24 32 35 48 49 61 29 50 64 0
22 24 32 27 48 49 61 37 50 64 0
22 24 32 27 35 28 49 29 62 64 0
22 24 32 27 35 36 49 37 62 64 0
22 24 32 35 48 28 49 50 62 64 0
22 24 32 35 48 28 49 61 -29 37 62 0
22 24 32 27 48 36 49 61 29 -37 62 0
22 24 32 35 48 -28 36 61 29 50 62 0
22 24 32 35 48 28 36 61 -29 50 62 0
22 24 32 27 35 36 -49 61 29 50 62 0
22 24 32 27 35 28 -49 61 37 50 62 0
22 24 32 35 -48 28 36 61 29 50 64 0
22 24 32 35 48 28 36 61 29 -50 64 0
22 24 32 -27 35 36 49 61 29 50 64 0
22 24 32 27 48 28 36 61 37 -50 64 0
22 24 32 27 35 28 49 61 -37 50 64 0
22 24 32 35 -48 28 49 29 37 62 64 0
22 24 32 35 48 28 -49 29 37 62 64 0
22 24 32 27 -48 36 49 29 37 62 64 0
22 24 32 27 48 36 -49 29 37 62 64 0
22 24 32 -35 48 28 36 29 50 62 64 0
22 24 32 35 48 28 -36 29 50 62 64 0
22 24 32 27 -35 36 49 29 50 62 64 0
22 24 32 27 35 -36 49 29 50 62 64 0
22 24 32 -27 35 28 49 37 50 62 64 0
22 24 32 27 35 -28 49 37 50 62 64 0
24 32 -27 -35 48 -36 -61 29 37 50 -62 64 0
22 24 32 27 35 28 49 30 63 65 0
22 24 32 27 48 36 49 51 63 65 0
22 24 32 27 35 28 49 61 38 -51 63 0
22 24 32 -35 48 28 49 61 30 38 65 0
22 24 32 27 -35 28 49 61 38 51 65 0
22 24 32 35 48 28 -36 30 51 63 65 0
22 24 32 27 35 29 50 30 63 66 0
22 24 32 27 -35 29 50 62 38 51 66 0
22 24 32 27 35 29 50 62 -38 51 66 0
22 24 32 27 35 -37 50 30 51 63 66 0
22 32 35 -48 29 37 62 -30 -38 -51 -63 -66 0
22 24 32 36 29 37 64 38 51 65 0
22 24 32 36 49 -29 50 64 30 38 65 0
22 24 32 36 49 29 50 64 -30 38 65 0
22 24 32 28 49 -37 50 64 30 38 65 0
22 24 32 28 36 37 -50 64 30 51 65 0
22 24 32 28 49 29 -37 64 38 51 65 0
22 24 32 -36 49 29 50 64 30 38 66 0
22 24 32 36 49 29 50 64 30 -38 66 0
22 24 32 -28 49 37 50 64 30 38 66 0
22 24 32 36 -49 29 37 64 30 51 66 0
22 24 32 28 -36 29 50 64 38 51 66 0
22 24 32 28 49 37 -50 30 38 65 66 0
22 24 32 -28 49 29 37 38 51 65 66 0
24 32 36 49 -29 -37 -50 -64 -30 51 65 -66 0
22 24 -49 29 -37 -50 -64 30 38 51 65 -66 0
22 -25 33 27 35 -53 36 -54 61 -29 -37 62 0
22 -25 33 27 35 -53 -28 -36 61 37 -55 62 0
22 -25 33 35 -53 28 36 -54 61 -29 -37 64 0
22 -25 33 35 53 -28 36 -54 -61 -29 37 -64 0
22 -25 33 -27 35 -28 36 -54 -61 37 55 -64 0
22 33 27 35 53 -28 36 -54 -61 -55 62 -64 0
22 -25 33 -35 -53 -28 36 -29 37 55 62 64 0
22 -25 33 -27 53 -28 -36 -54 61 -29 37 55 62 0
22 -25 33 -27 53 -28 36 54 61 -29 -37 -55 62 0
22 -25 33 -27 -35 -53 -28 54 61 -29 37 55 64 0
22 -25 33 -27 35 53 -28 54 61 -29 -37 -55 64 0
22 -25 33 -27 35 53 -28 -36 -54 -29 55 62 64 0
22 -25 33 27 35 -53 36 -54 61 -30 -38 63 0
22 -25 33 -35 -53 -28 36 54 61 -30 38 65 0
22 -25 33 -27 35 -28 36 54 61 -38 -56 65 0
22 -25 33 -35 -53 -28 36 -30 38 56 63 65 0
22 -25 33 -27 35 -53 37 55 -62 -30 38 -63 0
22 -25 33 -35 -53 -29 37 55 62 -30 38 66 0
22 -25 33 -27 35 -29 37 -55 -62 38 56 -66 0
22 -25 33 -27 35 -29 37 55 -30 -38 -63 -66 0
22 33 -27 35 -29 -37 -55 -62 38 56 63 -66 0
22 33 35 53 -29 37 62 -30 -38 -56 -63 -66 0
22 -25 33 -27 -35 -53 -29 55 62 -30 38 56 66 0
22 -25 33 28 36 -54 37 -55 64 -30 -38 65 0
22 -25 33 -28 36 54 -29 37 64 -38 -56 65 0
22 -25 33 -28 36 -54 -29 37 -64 38 56 -65 0
22 -25 33 -36 -54 -29 37 55 64 -30 38 66 0
22 -25 33 -28 -36 29 37 -55 64 38 -56 66 0
22 33 -28 36 -29 -37 -55 -64 38 56 65 -66 0
22 33 36 54 -29 37 64 -30 -38 -56 -65 -66 0
22 33 -28 36 37 55 64 -30 -38 -56 -65 -66 0
22 -25 33 -28 -36 -54 29 -55 64 30 38 -56 66 0
22 26 -34 27 -35 57 -28 -58 61 29 -37 62 0
22 26 -34 27 35 -57 28 -58 61 -29 -37 62 0
22 26 -34 27 35 -57 -28 -36 61 29 -59 62 0
22 26 -34 27 -57 28 36 -58 61 -29 -37 64 0
22 26 -34 -27 -35 28 36 -58 61 29 -59 64 0
22 26 -34 27 -35 28 -36 58 61 -29 -59 64 0
22 26 -34 -27 -57 28 -36 29 -37 59 62 64 0
22 26 27 35 57 -58 61 29 -37 -59 -62 -64 0
22 26 27 35 28 -58 61 -29 -37 -59 -62 -64 0
22 26 -57 28 -36 -58 -61 29 37 59 62 -64 0
22 26 -34 -35 57 -28 -36 -58 61 29 -37 59 62 0
22 26 -34 -35 57 28 -36 58 61 -29 -37 -59 62 0
22 26 -34 -27 -35 -57 -36 58 61 29 -37 59 64 0
22 26 -34 -27 -35 -57 28 -36 58 -37 59 62 64 0
22 26 -34 27 -35 57 -28 -58 61 30 -38 63 0
22 26 -34 27 -35 -57 28 58 -61 30 -38 -63 0
22 26 -34 -27 -35 28 -36 58 -61 30 -38 -63 0
22 26 -34 -27 -57 28 -36 58 61 30 -38 65 0
22 26 -34 27 -57 28 36 -58 61 -30 -38 65 0
22 26 -34 27 -57 28 -36 -58 -61 30 38 -65 0
22 26 27 57 -28 -36 -58 -61 30 -38 63 -65 0
22 26 -27 -35 -57 28 -36 -61 30 60 -63 65 0
22 26 -34 27 -35 28 58 30 -38 -60 -63 -65 0
22 26 -34 -27 -35 29 -37 59 -62 30 -38 -63 0
22 26 -34 27 -35 57 -29 -37 -62 30 -38 -66 0
22 26 -34 27 57 29 -37 -59 -62 30 -38 -66 0
22 26 -34 27 -35 29 -37 59 62 -30 -60 66 0
22 26 -27 -35 -57 29 37 -62 30 -60 -63 66 0
22 26 -34 -27 -57 29 -37 30 -38 60 63 66 0
22 26 -34 28 36 -58 -29 -37 64 30 -60 65 0
22 26 -34 28 -36 58 29 -37 64 -30 -60 65 0
22 26 -34 -28 -58 29 -37 59 64 30 -38 66 0
22 26 -34 28 -36 29 -37 59 64 -30 -60 66 0
22 26 -34 28 -36 29 -37 59 -30 -38 -65 -66 0
22 26 -28 -36 -58 29 37 -64 30 -60 -65 66 0
22 26 28 -36 -29 -37 -59 -64 30 60 65 -66 0
22 26 -34 28 -58 29 37 30 -38 -60 -65 -66 0
22 26 -34 28 -36 29 59 30 -38 -60 -65 -66 0
22 26 28 -58 29 37 64 -30 -38 -60 -65 -66 0
22 26 28 58 29 -37 64 -30 -38 -60 -65 -66 0
22 26 28 -36 -58 -59 -64 30 38 60 -65 66 0
22 26 -34 36 -58 29 37 -59 64 -30 -38 -60 65 0
22 27 35 -36 -61 -29 -37 62 -64 63 -65 0
22 -35 -28 -36 -61 29 37 -62 64 -63 66 0
22 27 -28 -36 61 37 64 30 38 63 66 0
22 28 36 61 -29 -37 64 -30 -63 -65 -66 0
22 -28 -36 29 37 62 64 -30 -63 -65 -66 0
22 -28 -36 -37 -62 -64 30 38 63 65 -66 0
24 -25 -40 26 -47 52 27 42 48 -53 0
24 -25 -40 46 26 -47 27 42 -53 57 0
24 -39 -25 26 -47 52 42 -48 53 57 0
24 -25 -40 26 -47 52 28 43 49 -54 0
24 -39 -25 26 -47 52 43 -49 54 58 0
24 -25 -40 26 -47 52 29 44 50 -55 0
24 -39 -25 26 -47 52 44 -50 55 59 0
24 -25 -40 26 -47 52 30 45 51 -56 0
24 -39 -25 26 -47 52 45 -51 56 60 0
24 -39 -25 -40 -27 -42 -53 28 -43 -49 -61 0
24 -39 -25 -40 27 -42 -48 -28 -43 -54 -61 0
24 -39 -25 -40 -42 -48 -53 -28 49 -54 -61 0
24 -39 -25 -40 -27 48 -53 -43 -49 -54 -61 0
24 -25 -40 42 -48 53 28 43 49 -54 61 0
24 -39 -25 -40 -27 42 48 53 28 -43 54 61 0
24 -39 -25 -40 27 42 -48 53 43 49 -54 61 0
24 -39 -25 -40 27 -42 53 -28 43 49 54 61 0
24 -39 -25 -40 -27 -42 -53 29 -44 -50 -62 0
24 -39 -25 -40 27 -42 -48 -29 -44 -55 -62 0
24 -39 -25 -40 -42 -48 -53 -29 50 -55 -62 0
24 -39 -25 -40 -27 48 -53 -44 -50 -55 -62 0
24 -39 -25 -40 -27 42 48 53 29 -44 55 62 0
24 -39 -25 -40 27 42 -48 53 44 50 -55 62 0
24 -39 -25 -40 27 -42 53 -29 44 50 55 62 0
24 -39 -40 27 -42 -48 53 29 44 50 55 -62 0
24 -39 -25 -40 -27 -42 -53 30 -45 -51 -63 0
24 -39 -25 -40 27 -42 -48 -30 -45 -56 -63 0
24 -39 -25 -40 -42 -48 -53 -30 51 -56 -63 0
24 -39 -25 -40 -27 48 -53 -45 -51 -56 -63 0
24 -39 -25 -40 -28 -43 -54 29 -44 -50 -64 0
24 -39 -25 -40 28 -43 -49 -29 -44 -55 -64 0
24 -39 -25 -40 -43 -49 -54 -29 50 -55 -64 0
24 -39 -25 -40 -28 49 -54 -44 -50 -55 -64 0
24 -39 -25 -40 -28 43 49 54 29 -44 55 64 0
24 -39 -25 -40 28 43 -49 54 44 50 -55 64 0
24 -39 -25 -40 28 -43 54 -29 44 50 55 64 0
24 -39 -25 -40 43 49 -54 29 44 -50 55 64 0
24 -39 -40 28 43 49 54 29 -44 -50 55 -64 0
24 -39 -25 -40 -28 -43 -54 30 -45 -51 -65 0
24 -39 -25 -40 28 -43 -49 -30 -45 -56 -65 0
24 -39 -25 -40 -43 -49 -54 -30 51 -56 -65 0
24 -39 -25 -40 -28 49 -54 -45 -51 -56 -65 0
24 -39 -25 -40 -28 43 49 54 30 -45 56 65 0
24 -39 -25 -40 28 -43 54 -30 45 51 56 65 0
24 -39 -25 -40 -29 -44 -55 30 -45 -51 -66 0
24 -39 -25 -40 29 -44 -50 -30 -45 -56 -66 0
24 -39 -25 -40 -44 -50 -55 -30 51 -56 -66 0
24 -39 -25 -40 -29 50 -55 -45 -51 -56 -66 0
24 -39 -40 29 44 50 55 30 -45 -51 56 -66 0
23 24 -39 26 -47 27 42 -48 43 -49 -61 0
23 24 -39 26 -47 42 -48 28 43 -49 -61 0
23 24 26 -47 27 -48 57 28 43 49 -61 0
23 24 -39 26 -47 27 -48 57 -49 58 -61 0
23 24 26 -47 27 42 48 28 -49 58 -61 0
23 24 -39 26 -47 -48 57 28 -49 58 -61 0
23 24 -39 26 41 -47 42 -48 57 -28 43 -49 61 0
23 24 -39 26 -47 27 42 -48 44 -50 -62 0
23 24 -39 26 -47 42 -48 29 44 -50 -62 0
23 24 -39 26 27 48 57 29 44 -50 -62 0
23 24 26 -47 27 -48 57 29 44 50 -62 0
23 24 -39 26 -47 27 -48 57 -50 59 -62 0
23 24 -39 26 27 42 -48 29 50 59 -62 0
23 24 26 -47 27 42 48 29 -50 59 -62 0
23 24 -39 26 41 -47 -27 42 -48 44 -50 59 62 0
23 24 -39 26 -47 27 42 -48 45 -51 -63 0
23 24 -39 26 -47 27 -48 57 -51 60 -63 0
23 24 26 -47 27 42 48 30 -51 60 -63 0
23 24 -39 26 -47 -48 57 30 -51 60 -63 0
23 24 -39 26 41 -47 -27 -48 57 45 -51 60 63 0
23 24 -39 26 28 43 58 29 -44 50 -64 0
23 24 -39 26 28 49 58 29 44 -50 -64 0
23 24 26 -47 28 -49 58 29 44 50 -64 0
23 24 -39 26 28 43 -49 29 50 59 -64 0
23 24 26 -47 28 43 49 29 -50 59 -64 0
23 24 -39 26 -47 28 43 -49 45 -51 -65 0
23 24 -39 26 -47 43 -49 30 45 -51 -65 0
23 24 -39 26 28 49 58 30 45 -51 -65 0
23 24 -39 26 28 43 -49 30 51 60 -65 0
23 24 -39 26 -47 -49 58 30 -51 60 -65 0
23 24 -39 26 41 -47 -28 43 -49 45 -51 60 65 0
23 24 -39 26 -47 29 44 -50 45 -51 -66 0
23 24 -39 26 -47 44 -50 30 45 -51 -66 0
23 24 -39 26 29 50 59 30 45 -51 -66 0
23 24 26 -47 29 -50 59 30 45 51 -66 0
23 24 -39 26 -47 29 -50 59 -51 60 -66 0
23 24 -39 26 29 44 -50 30 51 60 -66 0
23 24 26 -47 29 44 50 30 -51 60 -66 0
23 24 -39 27 42 -48 -28 -43 61 29 -50 62 0
23 24 -39 -27 -42 28 43 -49 61 29 -50 64 0
23 24 -39 27 -42 28 -43 -49 -61 29 50 -64 0
23 24 -39 27 -42 -28 -43 -61 29 -44 50 -64 0
23 24 -39 27 -48 -28 -43 29 44 -50 62 64 0
23 24 -39 27 -42 -28 -49 29 -44 50 62 64 0
23 24 -48 28 43 49 61 29 -44 -50 -62 -64 0
23 24 -39 -42 48 -28 -43 -49 61 29 -44 50 62 0
23 24 -39 -42 48 28 -43 49 61 -29 -44 -50 62 0
23 24 -39 -27 -42 -48 -43 49 61 29 -44 50 64 0
23 24 -39 27 -42 48 -43 49 61 -29 -44 -50 64 0
23 24 -39 27 42 -48 43 -49 61 -29 -44 -50 64 0
23 24 -39 -27 -42 -48 28 -43 49 -44 50 62 64 0
23 24 -39 27 -42 48 -28 -43 -49 -44 50 62 64 0
23 24 -39 27 48 28 -43 -49 -61 30 -45 -65 0
23 24 -39 27 42 28 -43 -49 -61 30 -51 -65 0
23 24 27 -42 -28 -43 -49 -61 30 51 63 -65 0
23 24 -39 27 -42 -48 29 50 -62 30 -45 -63 0
23 24 -39 27 -42 -48 29 44 -62 30 -51 -63 0
23 24 -39 27 -42 48 -29 -44 -62 30 -45 -66 0
23 24 -39 27 48 29 -44 -50 -62 30 -45 -66 0
23 24 -27 -42 -48 29 50 -62 30 -45 -63 66 0
23 24 -39 27 -42 29 50 30 -45 -51 -63 -66 0
23 24 -39 28 -43 -49 29 50 -64 30 -45 -65 0
23 24 -39 28 -43 49 29 -44 64 -30 -51 65 0
23 24 -39 -28 -43 29 -44 -64 30 -45 51 -65 0
23 24 -28 -43 -49 29 -44 -64 30 51 -65 66 0
23 24 -28 -43 -49 29 44 -64 30 -51 -65 66 0
23 24 -39 -28 -49 29 -44 30 -45 51 65 66 0
23 24 -39 28 -43 -29 -50 30 -45 51 65 66 0
23 24 -39 28 -43 29 50 30 -45 -51 -65 -66 0
-25 -40 26 41 52 42 -53 57 43 -54 -61 0
-25 26 41 52 -27 53 57 28 43 58 -61 0
-40 26 41 52 42 -53 57 28 54 58 -61 0
-25 -40 26 41 52 42 -53 43 -54 58 -61 0
-25 26 41 52 27 -53 57 43 54 58 -61 0
-40 26 41 52 27 53 57 43 -54 58 -61 0
-25 -40 26 41 52 27 -53 57 29 -55 -62 0
-25 -40 26 41 52 42 -53 57 44 -55 -62 0
-25 -40 26 41 52 27 -53 29 -55 59 -62 0
-25 26 41 52 42 53 57 29 -55 59 -62 0
-40 26 41 52 42 -53 57 29 55 59 -62 0
-25 -40 26 41 52 42 -53 44 -55 59 -62 0
-25 26 41 52 27 -53 57 44 55 59 -62 0
-40 26 41 52 27 53 57 44 -55 59 -62 0
23 -25 -40 26 41 52 27 42 -53 44 -55 -59 62 0
-25 -40 26 41 52 42 -53 57 45 -56 -63 0
-25 26 41 52 -27 53 57 30 45 60 -63 0
-25 26 41 52 42 53 57 30 -56 60 -63 0
-40 26 41 52 42 -53 57 30 56 60 -63 0
-25 -40 26 41 52 42 -53 45 -56 60 -63 0
-40 26 41 52 27 53 57 45 -56 60 -63 0
-25 -40 41 27 -42 -53 57 30 45 56 60 -63 0
-25 -40 26 41 52 28 -54 58 29 -55 -64 0
-25 -40 26 41 52 43 -54 58 44 -55 -64 0
-25 -40 26 41 52 28 -54 29 -55 59 -64 0
-25 26 41 52 43 54 58 29 -55 59 -64 0
-40 26 41 52 43 -54 58 29 55 59 -64 0
-25 -40 26 41 52 43 -54 44 -55 59 -64 0
-25 26 41 52 28 -54 58 44 55 59 -64 0
-40 26 41 52 28 54 58 44 -55 59 -64 0
-25 -40 41 28 -43 -54 58 29 44 55 59 -64 0
-25 -40 26 41 52 28 -54 58 30 -56 -65 0
-25 -40 26 41 52 43 -54 58 45 -56 -65 0
-25 -40 26 41 52 28 -54 30 -56 60 -65 0
-25 26 41 52 43 54 58 30 -56 60 -65 0
-40 26 41 52 43 -54 58 30 56 60 -65 0
-25 -40 26 41 52 43 -54 45 -56 60 -65 0
-40 26 41 52 28 54 58 45 -56 60 -65 0
23 -25 -40 26 41 52 28 -54 -58 30 45 -56 65 0
-25 -40 26 41 52 29 -55 59 30 -56 -66 0
-25 -40 26 41 52 44 -55 59 45 -56 -66 0
-25 -40 26 41 52 29 -55 30 -56 60 -66 0
-25 26 41 52 44 55 59 30 -56 60 -66 0
-40 26 41 52 44 -55 59 30 56 60 -66 0
-25 -40 26 41 52 44 -55 45 -56 60 -66 0
-25 26 41 52 29 -55 59 45 56 60 -66 0
-40 26 41 52 29 55 59 45 -56 60 -66 0
-25 -40 41 29 -44 -55 59 30 45 56 60 -66 0
-25 -40 -42 -53 -28 -54 -61 -29 44 -62 -64 0
-25 -40 -27 -53 -43 -54 -61 -29 44 -62 -64 0
-25 -40 -27 -53 -43 -54 -61 29 -44 -62 -64 0
-25 -40 -42 -53 -28 43 -61 -29 -55 -62 -64 0
-25 -40 -42 -53 28 -43 -61 -29 -55 -62 -64 0
-25 -40 -27 -53 -28 43 -61 -44 -55 -62 -64 0
-25 -40 -27 -53 28 -43 -61 -44 -55 -62 -64 0
-25 -40 27 -42 -28 -54 -61 -44 -55 -62 -64 0
-25 -40 -27 42 53 28 -43 -54 61 29 -44 62 0
-25 -40 27 -42 53 -28 43 61 -29 44 -55 62 0
-25 -40 -27 42 53 28 -43 61 29 -44 -55 62 0
-25 -40 -27 42 -53 28 -43 54 61 -29 44 64 0
-25 -40 -27 42 28 -43 54 61 -29 44 -55 64 0
-25 -40 27 -42 -28 43 54 61 29 -44 -55 64 0
-25 -40 -27 42 -53 28 -43 -54 61 -29 44 55 62 0
-25 -40 -27 42 53 -28 43 -54 61 29 -44 55 62 0
-25 -40 27 -42 -53 -28 43 -54 61 29 -44 55 62 0
-25 -40 -27 42 53 28 -43 54 61 -29 44 -55 62 0
-25 -40 27 -42 -53 28 -43 54 61 -29 44 -55 62 0
-25 -40 27 -42 53 -28 43 54 61 29 -44 -55 62 0
-25 -40 -27 42 -53 -28 43 54 61 29 -44 -55 62 0
-25 -40 27 -42 -53 -28 43 -54 61 -29 44 55 64 0
-25 -40 -27 42 -53 28 -43 -54 61 29 -44 55 64 0
-25 -40 27 -42 53 28 -43 -54 61 -29 44 -55 64 0
-25 -40 -27 42 53 28 -43 54 61 29 -44 -55 64 0
-25 -40 -27 42 53 -28 43 -54 61 29 -44 -55 64 0
-25 -40 27 -42 -53 -28 43 54 -29 44 -55 62 64 0
-25 -40 -27 42 53 28 -43 -54 -29 44 -55 62 64 0
-25 -40 -27 42 -53 28 -43 54 29 -44 -55 62 64 0
-25 -40 27 -42 53 -28 43 -54 29 -44 -55 62 64 0
-25 -40 -27 42 -53 -28 43 -61 29 44 55 62 -64 0
-25 -40 27 42 53 28 -43 -61 29 -44 -55 62 -64 0
-25 -40 -27 -42 -53 -43 -61 -30 -63 -65 0
-25 -40 -42 -28 -43 -54 -61 -30 -63 -65 0
-25 -40 -27 -42 -53 -28 -61 -45 -63 -65 0
-25 -40 -42 -53 -28 -54 -61 -30 45 -63 -65 0
-25 -40 -42 -53 -28 -54 -61 30 -45 -63 -65 0
-25 -40 -27 -53 -43 -54 -61 -30 45 -63 -65 0
-25 -40 -42 -53 28 -43 -61 -30 -56 -63 -65 0
-25 -40 -27 -53 -28 43 -61 -45 -56 -63 -65 0
-25 -40 -27 42 -28 -54 -61 -45 -56 -63 -65 0
-25 -40 27 -42 53 -28 43 -54 61 -30 45 63 0
-25 -40 -27 42 53 28 -43 -54 61 30 -45 63 0
-25 -40 -27 42 -53 28 54 -61 45 -56 -63 65 0
-25 -40 27 -42 -53 -28 43 -54 61 30 -45 56 63 0
-25 -40 -27 42 -53 -28 43 54 61 30 -45 56 65 0
-25 -40 -27 42 53 -28 43 -54 61 30 -45 -56 65 0
-25 -40 -27 -44 -62 -30 -45 -56 -63 -66 0
-25 -40 -27 -53 -44 -55 -62 -30 45 -63 -66 0
-25 -40 -27 -53 -44 -55 -62 30 -45 -63 -66 0
-25 -40 -42 -53 -29 44 -62 -30 -56 -63 -66 0
-25 -40 -42 -53 29 -44 -62 -30 -56 -63 -66 0
-25 -40 27 -42 -44 -55 -62 -30 -56 -63 -66 0
-25 -40 -27 42 -29 -55 -62 -45 -56 -63 -66 0
-25 -40 27 -42 -29 -55 -62 -45 -56 -63 -66 0
-25 -40 -27 42 -53 29 55 -62 45 -56 -63 66 0
-25 -40 -27 42 -53 -29 44 55 62 30 -45 56 66 0
-25 -40 -27 42 -53 29 -44 55 30 -45 -56 63 66 0
-25 -40 27 -42 53 -29 44 -55 30 -45 -56 63 66 0
-25 -40 -43 -29 -44 -55 -64 -30 -65 -66 0
-25 -40 -28 -29 -44 -55 -64 -45 -65 -66 0
-25 -40 -43 -29 -64 -30 -45 -56 -65 -66 0
-25 -40 -43 -54 -29 -55 -64 -30 45 -65 -66 0
-25 -40 -43 -54 -29 -55 -64 30 -45 -65 -66 0
-25 -40 -28 -54 -44 -55 -64 -30 45 -65 -66 0
-25 -40 -28 -54 -44 -55 -64 30 -45 -65 -66 0
-25 -40 -43 -54 -29 44 -64 -30 -56 -65 -66 0
-25 -40 -28 -54 -29 44 -64 -45 -56 -65 -66 0
-25 -40 -28 -54 29 -44 -64 -45 -56 -65 -66 0
-25 -40 -28 43 -29 -55 -64 -45 -56 -65 -66 0
-25 -40 28 -43 -29 -55 -64 -45 -56 -65 -66 0
-25 -40 -28 43 54 29 -44 -55 64 30 -45 65 0
-25 -40 -28 43 29 -44 55 64 -30 45 -56 66 0
-25 -40 28 54 -29 44 -55 -64 45 -56 65 -66 0
-25 -40 -28 43 -54 -29 44 55 64 30 -45 -56 65 0
-25 -40 28 -43 54 29 -44 -55 64 -30 45 -56 66 0
-25 -40 28 43 54 -29 44 -64 -30 45 -56 65 -66 0
23 26 41 27 28 58 61 29 44 62 0
23 26 41 42 43 58 61 29 44 62 0
23 26 41 42 28 43 61 44 59 62 0
23 26 41 27 57 28 61 29 44 64 0
23 26 41 27 42 28 61 29 59 64 0
23 26 41 42 57 58 61 29 59 64 0
23 26 41 27 57 58 61 44 59 64 0
23 26 41 27 57 28 43 29 62 64 0
23 26 41 27 42 28 58 29 62 64 0
23 26 41 42 57 28 58 59 62 64 0
23 26 41 27 57 43 58 59 62 64 0
23 26 41 42 57 -28 58 61 29 44 62 0
23 26 41 42 57 28 58 61 -29 44 62 0
23 26 41 27 57 -43 58 61 29 44 62 0
23 26 41 27 57 43 58 61 29 -44 62 0
23 26 41 42 57 -28 43 61 29 59 62 0
23 26 41 42 57 28 43 61 -29 59 62 0
23 26 41 27 42 43 -58 61 29 59 62 0
23 26 41 27 42 43 58 61 29 -59 62 0
23 26 41 27 57 28 -43 61 44 59 62 0
23 26 41 27 57 28 43 61 -44 59 62 0
23 26 41 27 42 28 -58 61 44 59 62 0
23 26 41 27 42 28 58 61 44 -59 62 0
23 26 41 42 57 28 58 61 29 -44 64 0
23 26 41 -27 57 43 58 61 29 44 64 0
23 26 41 27 57 43 58 61 -29 44 64 0
23 26 41 42 -57 28 43 61 29 59 64 0
23 26 41 -27 42 43 58 61 29 59 64 0
23 26 41 27 42 43 58 61 -29 59 64 0
23 26 41 27 57 28 43 61 44 -59 64 0
23 26 41 27 -42 28 58 61 44 59 64 0
23 26 41 27 42 28 58 61 -44 59 64 0
23 26 41 27 -57 43 58 29 44 62 64 0
23 26 41 27 57 43 -58 29 44 62 64 0
23 26 41 -42 57 28 43 29 59 62 64 0
23 26 41 42 57 28 -43 29 59 62 64 0
23 26 41 27 -42 43 58 29 59 62 64 0
23 26 41 27 42 -43 58 29 59 62 64 0
23 26 41 27 57 -28 43 44 59 62 64 0
23 26 41 -27 42 28 58 44 59 62 64 0
23 26 41 27 57 58 61 45 60 65 0
23 26 41 27 42 28 58 30 63 65 0
23 26 41 42 57 28 58 60 63 65 0
23 26 41 27 57 43 58 61 30 -45 63 0
23 26 41 27 57 28 -43 61 45 60 63 0
23 26 41 -42 57 28 58 61 30 45 65 0
23 26 41 27 -42 28 58 61 45 60 65 0
23 26 41 27 -42 43 58 30 60 63 65 0
23 26 41 42 57 59 62 30 60 66 0
23 26 41 27 57 29 44 30 63 66 0
23 26 41 -42 57 29 59 62 30 45 66 0
23 26 41 42 57 29 59 62 30 -45 66 0
23 26 41 27 -42 29 59 62 45 60 66 0
23 26 41 42 57 29 -59 30 45 63 66 0
23 26 41 27 -57 44 59 30 45 63 66 0
23 26 41 27 57 44 -59 30 45 63 66 0
23 26 41 27 57 -29 44 45 60 63 66 0
23 26 41 -27 42 29 59 45 60 63 66 0
23 26 41 43 29 44 64 45 60 65 0
23 26 41 43 58 44 64 30 45 66 0
23 26 41 28 43 29 64 30 60 66 0
23 26 41 43 58 59 64 30 60 66 0
23 26 41 28 43 29 59 30 65 66 0
23 26 41 43 58 29 59 60 65 66 0
23 26 41 28 58 44 59 60 65 66 0
23 26 41 28 58 -44 59 64 30 45 65 0
23 26 41 43 58 -29 44 64 30 60 65 0
23 26 41 43 58 29 44 64 -30 60 65 0
23 26 41 28 43 44 -59 64 30 60 65 0
23 26 41 28 58 29 -44 64 45 60 65 0
23 26 41 -43 58 29 59 64 30 45 66 0
23 26 41 43 -58 29 44 64 30 60 66 0
23 26 41 -28 43 44 59 64 30 60 66 0
23 26 41 28 -43 29 59 64 45 60 66 0
23 26 41 28 43 29 59 64 -45 60 66 0
23 26 41 43 -58 29 59 30 45 65 66 0
23 26 41 28 58 44 -59 30 45 65 66 0
23 -27 -42 -43 -61 -29 44 -62 64 -30 -63 0
23 -27 -42 28 -43 -61 -29 -62 64 -45 -63 0
23 27 42 -28 -61 -29 -44 62 -64 63 -65 0
23 -42 28 43 -61 -29 -44 -62 64 -63 65 0
23 42 28 -29 -44 62 64 30 45 63 65 0
23 27 42 -28 -43 61 -29 -62 -64 63 -66 0
23 42 -28 43 61 29 -64 30 45 63 66 0
23 28 43 61 -44 -62 -64 -30 -45 65 -66 0
23 -28 -43 29 44 62 64 -30 -63 -65 -66 0
24 -25 46 -27 48 53 -49 -54 61 -29 50 62 0
24 -25 46 -48 -53 -28 49 -29 50 55 62 64 0
24 -25 46 48 -53 -28 -49 29 50 -55 62 64 0
24 46 -27 28 49 54 61 -29 50 -55 -62 -64 0
24 -25 46 -27 -48 -53 28 -54 61 29 50 -55 64 0
24 -25 46 27 48 -53 28 -54 61 -29 -50 -55 64 0
24 -25 46 -27 -48 -53 28 49 -54 29 -55 62 64 0
24 -25 46 48 -53 28 49 -54 61 -30 -51 65 0
24 -25 46 -27 48 -28 49 54 61 -51 -56 65 0
24 46 -27 48 -53 28 49 54 -61 -30 -63 65 0
24 46 -27 -48 -53 49 -54 -61 30 51 -63 65 0
24 46 -27 28 49 54 61 -30 51 -56 -63 -65 0
24 46 48 -53 -29 -50 -55 -62 30 51 63 -66 0
24 -25 46 48 -53 29 50 -55 -51 -56 -63 -66 0
24 46 27 48 -29 -50 -55 -62 51 -56 63 -66 0
24 -25 46 27 48 -53 -29 -50 -55 30 -56 63 66 0
24 -25 46 -28 49 54 -50 -55 64 -30 51 65 0
24 -25 46 28 49 -54 -29 -50 64 51 -56 65 0
24 -25 46 -28 49 54 -29 50 64 -51 -56 65 0
24 -25 46 -28 -49 29 50 -55 64 51 -56 66 0
24 -25 46 28 49 -29 50 -55 -64 51 -56 -66 0
24 46 28 49 54 -29 50 -55 -64 -30 65 -66 0
24 46 -28 -49 -54 50 55 -64 -30 51 -65 66 0
24 46 49 -54 29 50 64 -30 -51 -56 -65 -66 0
24 46 28 49 50 -55 64 -30 -51 -56 -65 -66 0
24 46 -28 -29 50 -55 -64 30 51 56 65 -66 0
24 -25 46 -28 -49 -54 29 50 -55 30 -56 65 66 0
24 26 -47 27 48 -57 28 -58 61 -29 -50 62 0
24 26 -47 27 -57 28 49 -58 61 -29 -50 64 0
24 26 -47 -27 -48 28 49 -58 61 29 -59 64 0
24 26 -47 27 -48 -28 -49 -61 29 -50 59 -64 0
24 26 -27 -48 -57 28 -58 -61 29 50 -62 64 0
24 26 27 -57 -28 -49 -58 -61 29 50 62 -64 0
24 26 -47 27 48 -57 28 -58 -29 -59 -62 -64 0
24 26 -27 -48 -57 28 -49 -61 29 59 -62 64 0
24 26 -47 -27 -57 28 -49 29 -50 59 62 64 0
24 26 -47 -27 -48 28 -58 29 50 -59 62 64 0
24 26 -47 -48 57 -28 -49 -58 61 29 -50 59 62 0
24 26 -47 48 -57 -28 -49 -58 61 29 50 -59 62 0
24 26 -47 -48 57 28 -49 58 61 -29 -50 -59 62 0
24 26 -47 48 -57 28 49 -58 61 -29 -50 -59 62 0
24 26 -47 -27 -48 -57 49 -58 61 29 50 -59 64 0
24 26 -47 27 -48 57 -49 58 61 -29 -50 -59 64 0
24 26 -47 27 48 -57 49 -58 61 -29 -50 -59 64 0
24 26 -47 -27 -48 -57 28 -49 58 -50 59 62 64 0
24 26 -47 27 -48 57 -28 -49 -58 -50 59 62 64 0
24 26 -47 -27 -48 -57 28 49 -58 50 -59 62 64 0
24 26 -47 27 48 -57 -28 -49 -58 50 -59 62 64 0
24 26 -47 27 -48 -28 -49 -61 30 -51 60 -65 0
24 26 -27 -48 -57 28 58 -61 30 -51 -63 65 0
24 26 27 -57 -28 -49 -58 -61 30 51 63 -65 0
24 26 -27 -48 -57 28 49 -61 30 -60 -63 65 0
24 26 -48 28 49 58 61 30 -51 -60 -63 -65 0
24 26 -47 -27 -48 -57 49 -58 61 30 51 -60 65 0
24 26 -47 -27 -57 29 50 -59 -62 30 -60 -63 0
24 26 -27 -48 -57 29 59 -62 30 -51 -63 66 0
24 26 -47 27 -48 -29 -59 30 -51 60 63 66 0
24 26 -47 27 -48 57 -29 -50 -59 -51 60 63 66 0
24 26 -47 -27 -48 -57 29 50 -59 51 -60 63 66 0
24 26 -47 28 -49 58 -29 -50 -64 30 -51 -66 0
24 26 -47 28 -58 -29 -59 -64 30 51 -60 -66 0
24 26 28 -58 -29 -50 -59 -64 30 51 65 -66 0
24 26 28 58 -29 -50 -59 -64 30 -51 65 -66 0
24 26 28 -49 -29 -50 -59 -64 30 60 65 -66 0
24 26 28 49 -29 -50 -59 -64 30 -60 65 -66 0
24 26 28 58 29 -50 64 -30 -51 -60 -65 -66 0
24 26 -47 28 -49 58 -29 -50 -59 -51 60 65 66 0
24 26 -47 28 49 -58 -29 -50 -59 51 -60 65 66 0
24 27 48 -28 -61 -29 -50 62 -64 63 -65 0
24 -27 28 49 -61 -29 -50 -62 64 -63 65 0
24 -48 28 49 -61 -29 -50 -62 64 -63 65 0
24 -27 -48 28 49 50 62 64 30 63 65 0
24 -27 -48 28 49 29 62 64 51 63 65 0
24 -27 48 28 49 29 -62 64 51 63 65 0
24 27 49 29 50 62 64 30 -51 63 -65 0
24 27 48 -28 -49 61 -29 -62 -64 63 -66 0
24 -27 -28 -49 -61 29 50 -62 64 -63 66 0
24 -27 -48 49 61 29 50 64 30 63 66 0
24 27 48 49 61 -29 50 64 30 63 -66 0
24 -27 -48 28 61 29 50 64 51 63 66 0
24 27 48 28 61 -29 50 -64 51 63 66 0
24 27 -48 28 61 29 50 64 51 -63 66 0
24 48 -28 -49 61 29 64 30 51 63 66 0
24 -27 -48 28 49 61 -29 -62 -64 65 -66 0
24 -27 -48 28 49 61 -50 -62 -64 65 -66 0
24 -27 -48 -49 -61 29 50 62 -64 -65 66 0
24 48 28 -49 -61 29 50 62 30 65 66 0
24 48 28 49 61 29 -50 -62 30 65 66 0
24 27 28 49 61 -29 -50 62 51 65 66 0
24 -27 -48 49 61 29 62 30 51 65 66 0
24 28 49 61 -29 -50 64 -30 -63 -65 -66 0
24 -28 -49 29 50 62 64 -30 -63 -65 -66 0
24 -28 -49 29 50 62 64 -51 -63 -65 -66 0
-25 26 52 -27 -57 -28 58 -61 -29 55 59 -62 0
-25 26 52 -53 57 28 -54 58 61 -29 -59 64 0
-25 26 52 -27 -57 28 -54 58 61 -55 59 64 0
-25 26 52 -27 57 -28 54 58 61 -55 -59 64 0
-25 26 52 -27 57 -28 -58 -61 -29 55 59 -64 0
-25 26 52 -53 57 -54 -58 -61 29 -55 59 -64 0
26 52 -27 -53 57 28 54 58 -61 -55 -62 64 0
-25 26 52 -27 53 57 -28 58 -29 -59 -62 -64 0
26 52 -53 57 -28 -54 -58 -61 29 59 62 -64 0
-25 26 52 -53 -57 -28 58 -29 55 59 62 64 0
-25 26 52 -53 57 -28 -58 29 -55 59 62 64 0
-25 26 52 -27 57 -54 -58 -29 55 59 62 64 0
26 52 -27 -53 57 -28 -61 29 55 59 -62 64 0
26 52 -53 57 28 58 61 -29 -55 -59 -62 -64 0
26 52 27 57 -54 58 61 -29 -55 -59 -62 -64 0
-25 26 52 -27 53 -28 -54 -58 61 -29 55 59 62 0
-25 26 52 27 -53 -28 -54 -58 61 29 -55 59 62 0
-25 26 52 -27 53 -28 54 58 61 -29 -55 -59 62 0
-25 26 52 27 -53 28 -54 58 61 -29 -55 -59 62 0
-25 26 52 -27 -53 -57 -28 54 61 -29 55 59 64 0
-25 26 52 -27 -53 -57 28 -54 61 29 -55 59 64 0
-25 26 52 -27 53 57 -28 54 61 -29 -55 -59 64 0
-25 26 52 27 -53 57 28 -54 61 -29 -55 -59 64 0
-25 26 52 -27 53 57 -28 -54 -58 -29 55 62 64 0
-25 26 52 -27 -53 -57 28 -54 58 29 -55 62 64 0
-25 26 52 27 -53 57 -28 -54 -58 29 -55 62 64 0
-25 26 52 -27 53 57 -28 58 61 -56 -60 63 0
-25 26 52 -27 -53 57 28 58 -61 -56 60 -63 0
-25 26 52 -27 57 -28 -58 -61 -30 56 60 -65 0
-25 26 52 -53 57 -54 -58 -61 30 -56 60 -65 0
26 52 -27 -53 57 28 54 58 -61 -56 -63 65 0
26 52 -27 -53 -57 54 58 -61 -30 60 -63 65 0
26 52 -27 -53 -57 28 58 -61 -56 60 -63 65 0
26 52 -27 57 -28 -54 -58 -61 56 60 63 -65 0
-25 26 52 -27 57 -54 -58 -30 56 60 63 65 0
-25 26 52 -53 -57 -55 59 -62 30 -56 60 -63 0
-25 26 52 -27 57 -29 -59 -62 -30 56 60 -66 0
-25 26 52 -53 57 -55 -59 -62 30 -56 60 -66 0
-25 26 52 -27 53 57 -29 59 -30 -60 -63 -66 0
-25 26 52 -27 57 -29 55 59 -30 -60 -63 -66 0
26 52 -53 57 -29 -55 -59 -62 30 60 63 -66 0
26 52 53 57 -29 -55 -59 -62 -30 60 63 -66 0
26 52 -27 57 -29 -55 -59 -62 56 60 63 -66 0
26 52 27 57 -29 -55 -59 -62 -56 60 63 -66 0
-25 26 52 -28 54 58 -55 -59 64 -30 60 65 0
-25 26 52 -28 -58 -29 55 59 -64 -30 60 -65 0
-25 26 52 28 -54 58 -29 -59 64 -56 60 65 0
-25 26 52 -54 -58 -29 55 59 64 -30 60 66 0
-25 26 52 28 -54 58 -55 -59 -64 -56 60 -66 0
-25 26 52 -28 54 58 -29 59 -30 -60 -65 -66 0
-25 26 52 -28 58 -29 55 59 -30 -60 -65 -66 0
26 52 54 58 -29 -55 -59 -64 -30 60 65 -66 0
-25 26 52 54 58 -29 59 -30 -56 60 -65 -66 0
26 52 -54 58 29 59 64 -30 -56 -60 -65 -66 0
26 52 54 58 -29 59 64 -30 -56 -60 -65 -66 0
26 52 -28 58 55 59 64 -30 -56 -60 -65 -66 0
26 52 28 58 -55 59 64 -30 -56 -60 -65 -66 0
-25 26 52 -28 -54 -58 29 -55 59 30 -56 65 66 0
-25 -27 28 -54 61 -29 55 -62 -30 -56 65 0
-25 -27 53 28 -54 -29 -55 64 -30 -63 65 0
-25 27 -53 -28 54 -29 -55 64 -56 -63 65 0
-25 -27 -53 -54 29 -55 -64 -30 56 63 65 0
-25 -27 53 -28 -54 29 -55 64 -30 -63 66 0
-25 27 -53 -28 -54 -29 55 64 -56 -63 66 0
-25 -27 -53 28 -54 61 -29 55 -30 65 -66 0
-25 -27 -53 -28 54 29 -55 62 -30 -65 66 0
-25 -27 -53 -28 54 61 29 -55 -56 65 -66 0
-25 -27 -53 28 -54 -29 55 62 -56 -65 66 0
-25 -27 -53 -28 -29 55 62 64 30 -56 63 -65 0
-25 -27 53 -28 61 29 -55 -64 -30 -56 63 66 0
-25 -27 28 -54 -61 -29 -55 64 -30 56 63 66 0
-25 53 28 54 -61 -29 -55 -62 64 -30 -63 65 -66 0
-25 27 -28 -54 -61 29 55 -62 64 -56 -63 -65 66 0
26 27 57 -28 -61 -29 -59 62 -64 63 -65 0
26 27 57 -58 -61 -29 -59 62 -64 63 -65 0
26 -27 28 58 -61 -29 -59 -62 64 -63 65 0
26 27 -57 28 58 59 -62 64 30 63 65 0
26 27 57 -28 -58 61 -29 -62 -64 63 -66 0
26 27 57 -28 -58 61 -59 -62 -64 63 -66 0
26 -27 -28 -58 -61 29 59 -62 64 -63 66 0
26 -27 -57 58 61 29 59 64 30 63 66 0
26 27 -57 58 -61 29 59 64 30 63 66 0
26 27 57 58 61 -29 -59 64 30 63 66 0
26 27 57 58 61 29 -59 -64 30 63 66 0
26 -27 57 28 -61 29 59 64 60 63 66 0
26 27 57 28 61 -29 -59 64 60 63 66 0
26 27 57 28 61 -29 59 -64 60 63 66 0
26 57 28 58 61 29 64 -30 60 63 -66 0
26 -27 -57 -28 -61 29 59 62 -64 -65 66 0
26 -27 -57 -58 -61 29 59 62 -64 -65 66 0
26 27 -28 -58 61 29 59 62 60 65 66 0
26 27 28 58 61 -29 -59 62 60 65 66 0
26 -58 -61 29 59 62 -64 -30 -60 -65 66 0
26 28 58 61 -29 -59 64 -30 -63 -65 -66 0
26 -28 -58 29 59 62 64 -30 -63 -65 -66 0
26 -28 -58 29 59 62 64 -60 -63 -65 -66 0
31 33 -40 -34 -47 52 35 42 48 -57 0
31 -39 33 -40 -34 52 -42 48 53 57 0
31 33 -40 -34 -47 52 36 43 49 -58 0
31 -39 33 -40 -34 52 -43 49 54 58 0
31 33 -40 -34 -47 52 37 44 50 -59 0
31 -39 33 -40 -34 52 -44 50 55 59 0
31 33 -40 -34 -47 52 38 45 51 -60 0
31 -39 33 -40 -34 52 -45 51 56 60 0
31 32 -39 33 -40 35 -42 48 -43 49 -61 0
31 32 -39 33 35 42 53 36 -43 49 -61 0
31 32 33 -40 35 -42 53 36 43 49 -61 0
31 32 -39 33 -40 35 -42 53 -43 54 -61 0
31 32 -39 33 35 -42 48 36 43 54 -61 0
31 32 33 -40 35 42 48 36 -43 54 -61 0
31 32 -39 33 -40 -42 53 36 -43 54 -61 0
32 -39 -40 35 -42 -48 53 36 43 49 54 -61 0
31 32 -39 33 -40 46 -35 -42 53 -43 49 54 61 0
31 32 -39 33 -40 -42 48 37 -44 50 -62 0
31 32 -39 33 35 42 53 37 -44 50 -62 0
31 32 33 -40 35 -42 53 37 44 50 -62 0
31 32 -39 33 35 48 53 37 44 -50 -62 0
31 32 -39 33 -40 35 -42 53 -44 55 -62 0
31 32 33 -40 35 42 48 37 -44 55 -62 0
31 32 -39 33 -40 35 -42 48 -45 51 -63 0
31 32 -39 33 -40 -42 48 38 -45 51 -63 0
31 32 -39 33 35 42 53 38 -45 51 -63 0
31 32 -39 33 -40 35 -42 53 -45 56 -63 0
31 32 -39 33 35 42 -48 38 51 56 -63 0
32 -39 -40 35 -42 -48 53 38 45 51 56 -63 0
31 32 -39 33 -40 36 -43 49 -44 50 -64 0
31 32 -39 33 -40 -43 49 37 -44 50 -64 0
31 32 -39 33 36 43 54 37 -44 50 -64 0
31 32 33 -40 36 -43 54 37 44 50 -64 0
31 32 -39 33 36 49 54 37 44 -50 -64 0
31 32 -39 33 -40 36 -43 54 -44 55 -64 0
31 32 33 -40 36 43 49 37 -44 55 -64 0
31 32 -39 33 -40 36 -43 49 -45 51 -65 0
31 32 -39 33 -40 -43 49 38 -45 51 -65 0
31 32 -39 33 36 43 54 38 -45 51 -65 0
31 32 33 -40 36 -43 54 38 45 51 -65 0
31 32 33 -40 36 43 49 38 -45 56 -65 0
31 32 -39 33 -40 -43 54 38 -45 56 -65 0
31 32 -39 33 36 43 -49 38 51 56 -65 0
32 -39 -40 36 -43 -49 54 38 45 51 56 -65 0
31 32 -39 33 -40 37 -44 50 -45 51 -66 0
31 32 -39 33 -40 -44 50 38 -45 51 -66 0
31 32 -39 33 37 44 55 38 -45 51 -66 0
31 32 33 -40 37 -44 55 38 45 51 -66 0
31 32 -39 33 -40 37 -44 55 -45 56 -66 0
31 32 33 -40 37 44 50 38 -45 56 -66 0
31 32 -39 33 -40 -44 55 38 -45 56 -66 0
31 -39 -34 -47 -35 -48 -57 36 -43 -49 -61 0
31 -39 -34 -47 -42 -48 -57 -36 43 -58 -61 0
31 -39 -34 -47 35 -42 -48 -36 -49 -58 -61 0
31 -39 -34 -47 -35 42 -57 -43 -49 -58 -61 0
31 -39 -34 -47 -35 42 48 57 36 -49 58 61 0
31 -39 -34 -47 35 -42 48 57 43 49 -58 61 0
31 -39 -34 -47 35 -48 57 -36 43 49 58 61 0
31 -39 -34 -47 42 48 -57 36 -43 49 58 61 0
31 -39 -34 -47 -35 -48 -57 37 -44 -50 -62 0
31 -39 -34 -47 -42 -48 -57 -37 44 -59 -62 0
31 -39 -34 -47 35 -42 -48 -37 -50 -59 -62 0
31 -39 -34 -47 -35 42 -57 -44 -50 -59 -62 0
31 -39 -34 -47 -35 42 48 57 37 -50 59 62 0
31 -39 -34 -47 35 -42 48 57 44 50 -59 62 0
31 -39 -34 -47 35 -48 57 -37 44 50 59 62 0
31 -39 -34 -47 42 48 -57 37 -44 50 59 62 0
31 -39 -34 -47 -35 -48 -57 38 -45 -51 -63 0
31 -39 -34 -47 -42 -48 -57 -38 45 -60 -63 0
31 -39 -34 -47 35 -42 -48 -38 -51 -60 -63 0
31 -39 -34 -47 -35 42 -57 -45 -51 -60 -63 0
31 -39 -34 -47 35 -48 57 -38 45 51 60 63 0
31 -39 -34 -47 -36 -49 -58 37 -44 -50 -64 0
31 -39 -34 -47 -43 -49 -58 -37 44 -59 -64 0
31 -39 -34 -47 36 -43 -49 -37 -50 -59 -64 0
31 -39 -34 -47 -36 43 -58 -44 -50 -59 -64 0
31 -39 -34 -47 -36 43 49 58 37 -50 59 64 0
31 -39 -34 -47 36 -43 49 58 44 50 -59 64 0
31 -39 -34 -47 36 -49 58 -37 44 50 59 64 0
31 -39 -34 -47 43 49 -58 37 -44 50 59 64 0
31 -39 -47 36 -43 -49 58 37 44 50 59 -64 0
31 -39 -34 -47 -36 -49 -58 38 -45 -51 -65 0
31 -39 -34 -47 -43 -49 -58 -38 45 -60 -65 0
31 -39 -34 -47 36 -43 -49 -38 -51 -60 -65 0
31 -39 -34 -47 -36 43 -58 -45 -51 -60 -65 0
31 -39 -34 -47 -36 43 49 58 38 -51 60 65 0
31 -39 -34 -47 -37 -50 -59 38 -45 -51 -66 0
31 -39 -34 -47 -44 -50 -59 -38 45 -60 -66 0
31 -39 -34 -47 37 -44 -50 -38 -51 -60 -66 0
31 -39 -34 -47 -37 44 -59 -45 -51 -60 -66 0
31 -34 -47 37 44 50 59 -38 45 51 -60 -66 0
31 32 -39 35 -42 -48 36 -49 -61 37 44 -62 0
31 32 -39 35 -42 48 36 -43 61 -37 -50 62 0
31 32 -39 35 -48 36 43 -49 61 -37 -44 64 0
31 32 -39 35 -48 36 -43 -49 -61 37 44 -64 0
31 32 -39 35 -48 -36 -49 -61 37 44 -50 -64 0
31 32 -39 -35 -48 36 -43 37 -44 50 62 64 0
31 32 -39 35 -48 -36 -43 37 44 -50 62 64 0
31 32 -39 35 -42 -36 -49 37 -44 50 62 64 0
31 32 -39 -35 -42 36 -49 37 44 -50 62 64 0
31 32 35 -42 -48 -43 -61 37 44 50 -62 64 0
31 32 35 -48 36 43 61 -37 -44 -50 -62 -64 0
31 32 -39 42 -48 -36 -43 -49 61 37 44 -50 62 0
31 32 -39 -35 -42 -48 43 -49 61 37 44 -50 64 0
31 32 -39 35 42 -48 43 -49 61 -37 -44 -50 64 0
31 32 -39 -35 -42 -48 36 43 -49 44 -50 62 64 0
31 32 -39 35 42 -48 -36 -43 -49 44 -50 62 64 0
31 32 -39 35 -48 36 43 -49 61 -38 -45 65 0
31 32 -39 35 -42 36 -43 -49 -61 38 51 -65 0
31 32 35 -42 -48 36 43 49 -61 -45 -63 65 0
31 32 35 -42 -36 -43 -49 -61 38 51 63 -65 0
31 32 35 42 -36 -43 -49 -61 38 -51 63 -65 0
31 32 -39 35 -42 -48 37 44 -62 38 -51 -63 0
31 32 -39 35 -48 37 -44 -50 -62 38 45 -66 0
31 32 -35 -42 -48 37 44 -62 38 -51 -63 66 0
31 32 35 -42 -37 -44 -50 -62 38 51 63 -66 0
31 32 -42 37 44 50 62 38 -45 -51 -63 -66 0
31 32 -39 -35 -42 -48 37 44 -50 45 -51 63 66 0
31 32 -39 36 43 -49 -37 -44 64 38 -51 65 0
31 32 -39 36 -43 -49 37 44 -64 38 -51 -65 0
31 32 -39 36 43 -49 -37 -50 -64 38 -51 -66 0
31 32 -39 36 43 37 -44 -50 -64 38 -51 -66 0
31 32 36 43 49 37 -44 -50 -64 -45 65 -66 0
31 32 -36 -43 -49 37 -50 -64 38 45 -65 66 0
31 32 36 -43 -37 -44 -50 -64 38 51 65 -66 0
31 32 -39 36 43 37 -50 38 -45 -51 -65 -66 0
31 32 -43 37 -44 -50 -64 38 45 51 65 -66 0
31 32 -43 37 44 50 64 38 -45 -51 -65 -66 0
31 32 -39 43 -49 -37 -44 -50 64 38 45 -51 65 0
31 32 -39 43 -49 37 44 -50 64 -38 -45 -51 65 0
31 32 -39 -36 -43 -49 37 44 -50 45 -51 65 66 0
31 33 -40 35 42 -53 36 -54 61 -37 -44 62 0
31 33 -40 35 -42 53 36 -43 61 -37 -55 62 0
31 33 -40 -35 -53 36 -43 54 61 37 -44 64 0
31 33 -40 35 -42 53 36 -43 -37 -44 -62 -64 0
31 33 -35 -42 -53 36 54 -61 37 -44 -62 64 0
31 33 35 -42 -36 -43 -54 -61 37 55 62 -64 0
31 33 35 42 36 -54 61 -37 -44 -55 -62 -64 0
31 33 -40 -42 53 -36 -43 -54 61 37 -44 55 62 0
31 33 -40 42 -53 36 43 -54 61 -37 -44 -55 62 0
31 33 -40 -35 -42 -53 43 -54 61 37 44 -55 64 0
31 33 -40 35 -42 53 -43 54 61 -37 -44 -55 64 0
31 33 -40 35 42 -53 43 -54 61 -37 -44 -55 64 0
31 33 -40 -35 -42 -53 36 -43 54 -44 55 62 64 0
31 33 -40 35 -42 53 -36 -43 -54 -44 55 62 64 0
31 33 -40 35 42 -53 -36 -43 -54 44 -55 62 64 0
31 33 -40 35 -42 53 -36 -54 61 38 -45 63 0
31 33 -40 35 -42 -36 -43 -61 38 -45 56 -65 0
31 33 -35 -42 -53 36 -54 -61 38 45 -63 65 0
31 33 -35 -42 -53 36 54 -61 38 -45 -63 65 0
31 33 35 53 -36 -43 -54 -61 38 -45 63 -65 0
31 33 35 42 36 -54 61 -38 -45 -56 -63 -65 0
31 33 -40 35 42 -53 -37 -44 62 38 -56 63 0
31 33 -40 35 -42 53 -37 -44 -62 38 -45 -66 0
31 33 -40 35 42 -53 -37 -55 -62 38 -56 -66 0
31 33 -35 -42 -53 37 55 -62 38 -45 -63 66 0
31 33 35 -53 -37 -44 -55 -62 38 45 63 -66 0
31 33 35 53 -37 -44 -55 -62 38 -45 63 -66 0
31 33 -40 35 42 -53 37 -55 -38 -56 -63 -66 0
31 33 -35 -42 -53 37 -44 -62 38 56 -63 66 0
31 33 35 42 -37 -44 -55 -62 38 -56 63 -66 0
31 33 -40 35 -53 -37 -44 38 45 -56 63 66 0
31 33 35 -53 37 44 62 -38 -45 -56 -63 -66 0
31 33 -40 -35 -42 -53 44 -55 62 38 45 -56 66 0
31 33 -40 35 -42 53 -37 -44 -55 -45 56 63 66 0
31 33 -40 -36 -43 37 -44 55 -64 38 -45 -65 0
31 33 -40 36 43 -54 -37 -44 64 38 -56 65 0
31 33 -40 36 -43 54 37 -44 64 -38 -56 65 0
31 33 -40 -36 -54 37 -44 55 64 38 -45 66 0
31 33 -40 36 43 -54 -37 -55 -64 38 -56 -66 0
31 33 -40 36 -43 54 37 -44 -38 -45 -65 -66 0
31 33 36 54 -37 -44 -55 -64 38 -45 65 -66 0
31 33 -36 -43 -54 37 44 -64 38 -56 -65 66 0
31 33 36 43 -37 -44 -55 -64 38 -56 65 -66 0
31 33 -40 -36 -54 37 -44 38 -45 56 65 66 0
31 33 -40 36 54 37 -44 38 -45 -56 -65 -66 0
31 33 36 -43 37 55 64 -38 -45 -56 -65 -66 0
31 33 -40 43 -54 37 44 -55 64 -38 -45 -56 65 0
31 -34 41 35 42 -57 43 -58 61 -37 -44 62 0
31 -34 41 35 42 -57 -36 -43 61 44 -59 62 0
31 -34 41 -35 42 57 -36 -43 -61 -37 44 -64 0
31 -34 41 42 -57 36 43 -58 61 -37 -44 64 0
31 -34 41 42 -57 -36 43 -58 -61 37 44 -64 0
31 -34 41 42 57 -36 43 -58 -61 -37 44 -64 0
31 -34 41 -35 42 -36 43 58 61 -44 -59 64 0
31 -34 41 35 42 -36 43 -58 -61 44 -59 -64 0
31 41 35 42 57 -36 43 -58 -61 -37 62 -64 0
31 -34 41 35 42 -57 43 -58 -44 -59 -62 -64 0
31 -34 41 42 -57 -36 -43 37 44 -59 62 64 0
31 -34 41 42 -57 36 43 -37 44 -59 -62 -64 0
31 -34 41 -35 -42 43 -58 37 44 -59 62 64 0
31 -34 41 35 -57 -36 -43 -58 61 37 44 -59 62 0
31 -34 41 35 -57 36 43 -58 61 -37 -44 -59 62 0
31 -34 41 -35 -42 -57 36 -58 61 37 44 -59 64 0
31 -34 41 35 42 -57 36 -58 61 -37 -44 -59 64 0
31 -34 41 -35 -42 -57 36 43 -58 37 -59 62 64 0
31 -34 41 35 42 -57 -36 -43 -58 37 -59 62 64 0
31 -34 41 -35 -42 43 -58 38 45 -60 63 65 0
31 41 35 42 43 -58 61 -38 -45 -60 -63 -65 0
31 41 -35 36 43 58 61 -38 45 -60 -63 -65 0
31 -34 41 -35 57 -36 -43 -58 61 -38 45 60 63 0
31 -34 41 -35 42 -57 37 44 -62 45 -60 -63 0
31 -34 41 -35 -42 37 44 -59 62 45 -60 66 0
31 41 42 -57 -37 -44 -59 -62 38 45 63 -66 0
31 41 35 42 57 -37 62 -38 45 -60 -63 -66 0
31 -34 41 36 43 -58 44 -59 64 -38 -45 65 0
31 -34 41 -36 43 -58 44 -59 -64 38 45 -65 0
31 -34 41 -36 43 -58 44 59 -64 -38 45 -65 0
31 -34 41 -36 43 58 -37 44 64 -45 -60 65 0
31 -34 41 -36 43 -58 -37 44 -64 45 60 -65 0
31 -34 41 -36 43 -58 37 44 -64 45 -60 -65 0
31 -34 41 -43 -58 37 44 -59 -64 45 -60 -65 0
31 -34 41 43 -58 37 44 -59 64 -38 -45 66 0
31 -34 41 36 43 -37 44 -59 -64 45 -60 -66 0
31 -34 41 43 -58 -37 -44 38 45 -60 65 66 0
31 41 36 43 58 -37 64 -38 45 -60 -65 -66 0
31 -34 41 36 -58 37 44 -59 64 -38 -45 -60 65 0
31 -42 36 43 -61 -37 -44 -62 64 -63 65 0
31 35 42 -36 -43 44 62 64 38 63 65 0
31 35 42 -36 -43 37 62 64 45 63 65 0
31 -35 42 36 43 37 -62 64 45 63 65 0
31 35 -42 36 43 37 62 64 45 -63 65 0
31 -35 -36 -43 -61 37 44 -62 64 -63 66 0
31 -42 -36 -43 -61 37 44 -62 64 -63 66 0
31 -35 -42 43 61 37 44 64 38 63 66 0
31 35 -42 36 61 37 44 64 45 -63 66 0
31 -35 -42 -43 -61 37 44 62 -64 -65 66 0
31 42 -36 -43 61 37 44 62 38 65 66 0
31 42 36 43 61 -37 -44 62 38 65 66 0
31 42 -36 43 61 37 44 62 38 -65 66 0
31 42 36 43 61 -37 44 62 38 65 -66 0
31 35 -36 -43 61 37 44 62 45 65 66 0
31 35 36 43 61 -37 -44 62 45 65 66 0
31 35 36 43 61 37 -44 62 45 65 -66 0
31 36 43 61 -37 -44 64 -38 -63 -65 -66 0
31 -36 -43 37 44 62 64 -38 -63 -65 -66 0
31 -36 -43 37 44 62 64 -45 -63 -65 -66 0
31 -35 42 -36 43 61 -37 -44 64 -38 -45 -63 0
33 46 -34 -47 52 35 53 -57 36 -58 -61 0
33 46 -34 -47 52 48 53 -57 49 -58 -61 0
33 46 -34 -47 52 35 -57 36 54 -58 -61 0
33 46 -34 52 48 53 57 36 54 -58 -61 0
33 46 -47 52 48 53 -57 36 54 58 -61 0
33 46 -34 -47 52 48 -57 49 54 -58 -61 0
33 46 -34 52 35 53 -57 49 54 58 -61 0
33 46 -47 52 35 53 57 49 54 -58 -61 0
32 33 46 -34 -47 52 48 -53 -57 36 49 -58 61 0
33 46 -34 52 -35 53 57 37 50 55 -62 0
33 46 -34 -47 52 48 53 -57 50 -59 -62 0
33 46 -34 -47 52 35 -57 37 55 -59 -62 0
33 46 -34 52 48 53 57 37 55 -59 -62 0
33 46 -47 52 48 53 -57 37 55 59 -62 0
33 46 -34 -47 52 48 -57 50 55 -59 -62 0
33 46 -34 52 35 53 -57 50 55 59 -62 0
33 46 -47 52 35 53 57 50 55 -59 -62 0
32 33 46 -34 -47 52 35 -53 -57 37 50 -59 62 0
33 46 -34 -47 52 35 53 -57 38 -60 -63 0
33 46 -34 -47 52 48 53 -57 51 -60 -63 0
33 46 -34 52 48 53 57 38 56 -60 -63 0
33 46 -47 52 35 53 57 51 56 -60 -63 0
33 46 -34 -47 52 36 54 -58 37 -59 -64 0
33 46 -34 -47 52 49 54 -58 50 -59 -64 0
33 46 -34 52 36 49 54 -37 55 59 -64 0
33 46 -34 -47 52 36 -58 37 55 -59 -64 0
33 46 -34 52 49 54 58 37 55 -59 -64 0
33 46 -47 52 49 54 -58 37 55 59 -64 0
33 46 -34 -47 52 49 -58 50 55 -59 -64 0
33 46 -34 52 36 54 -58 50 55 59 -64 0
33 46 -47 52 36 54 58 50 55 -59 -64 0
32 33 46 -34 -47 52 36 -54 -58 37 50 -59 64 0
32 33 46 -34 -47 52 36 49 -58 50 -55 -59 64 0
33 46 -47 52 -49 54 58 38 51 56 -65 0
33 46 -34 -47 52 36 54 -58 38 -60 -65 0
33 46 -34 -47 52 49 54 -58 51 -60 -65 0
33 46 -34 -47 52 36 -58 38 56 -60 -65 0
33 46 -34 52 49 54 58 38 56 -60 -65 0
33 46 -47 52 49 54 -58 38 56 60 -65 0
33 46 -34 -47 52 49 -58 51 56 -60 -65 0
33 46 -34 52 -37 55 59 38 51 56 -66 0
33 46 -34 -47 52 37 55 -59 38 -60 -66 0
33 46 -34 -47 52 37 -59 38 56 -60 -66 0
33 46 -34 52 50 55 59 38 56 -60 -66 0
33 46 -47 52 50 55 -59 38 56 60 -66 0
33 46 -34 -47 52 50 -59 51 56 -60 -66 0
33 46 -34 52 37 55 -59 51 56 60 -66 0
32 33 46 -34 -47 52 50 -55 -59 38 51 -60 66 0
32 33 46 35 36 54 61 37 50 62 0
32 33 46 35 36 49 61 37 55 62 0
32 33 46 53 49 54 61 37 55 62 0
32 33 46 53 36 54 61 50 55 62 0
32 33 46 35 48 36 61 37 55 64 0
32 33 46 48 53 54 61 37 55 64 0
32 33 46 35 53 54 61 50 55 64 0
32 33 46 35 53 36 49 37 62 64 0
32 33 46 35 48 36 54 37 62 64 0
32 33 46 48 53 36 49 50 62 64 0
32 33 46 48 53 36 54 55 62 64 0
32 33 46 35 53 49 54 55 62 64 0
32 33 46 48 53 36 54 61 -37 50 62 0
32 33 46 35 53 49 54 61 37 -50 62 0
32 33 46 48 53 -36 49 61 37 55 62 0
32 33 46 35 53 36 -49 61 50 55 62 0
32 33 46 35 53 36 49 61 -50 55 62 0
32 33 46 35 48 36 54 61 50 -55 62 0
32 33 46 48 53 36 54 61 37 -50 64 0
32 33 46 35 53 49 54 61 -37 50 64 0
32 33 46 48 -53 36 49 61 37 55 64 0
32 33 46 -35 48 49 54 61 37 55 64 0
32 33 46 35 48 49 54 61 -37 55 64 0
32 33 46 35 53 36 49 61 50 -55 64 0
32 33 46 35 48 36 54 61 -50 55 64 0
32 33 46 48 -53 36 54 37 50 62 64 0
32 33 46 48 53 36 -54 37 50 62 64 0
32 33 46 35 -53 49 54 37 50 62 64 0
32 33 46 35 53 49 -54 37 50 62 64 0
32 33 46 48 53 36 -49 37 55 62 64 0
32 33 46 35 48 -49 54 37 55 62 64 0
32 33 46 35 53 -36 49 50 55 62 64 0
32 33 46 -35 48 36 54 50 55 62 64 0
32 33 46 35 53 36 49 38 63 65 0
32 33 46 48 53 -36 49 61 38 56 63 0
32 33 46 35 48 49 -54 61 38 56 63 0
32 33 46 -48 53 36 54 61 38 51 65 0
32 33 46 48 53 36 54 61 38 -51 65 0
32 33 46 35 48 36 54 61 -51 56 65 0
33 46 -35 -48 -53 -36 54 -61 51 56 -63 65 0
32 33 46 35 37 50 62 38 56 63 0
32 33 46 53 37 55 62 51 56 63 0
32 33 46 35 53 37 62 38 51 66 0
32 33 46 35 53 55 62 51 56 66 0
32 33 46 35 53 37 50 38 63 66 0
32 33 46 35 53 37 -50 62 51 56 63 0
32 33 46 -48 53 37 55 62 38 51 66 0
32 33 46 48 -53 37 50 62 38 56 66 0
32 33 46 -48 53 37 50 38 56 63 66 0
32 33 46 36 37 55 64 38 51 65 0
32 33 46 49 54 55 64 38 56 66 0
32 33 46 36 49 37 55 38 65 66 0
32 33 46 49 54 37 55 56 65 66 0
32 33 46 36 54 50 55 56 65 66 0
32 33 46 49 54 37 55 64 -38 51 65 0
32 33 46 36 54 -50 55 64 38 51 65 0
32 33 46 36 54 50 55 64 38 -51 65 0
32 33 46 49 54 -37 50 64 38 56 65 0
32 33 46 36 49 50 -55 64 38 56 65 0
32 33 46 36 54 37 -50 64 51 56 65 0
32 33 46 36 49 37 55 64 51 -56 65 0
32 33 46 -49 54 37 55 64 38 51 66 0
32 33 46 49 54 37 55 64 38 -51 66 0
32 33 46 36 -49 37 55 64 51 56 66 0
32 33 46 36 54 50 -55 38 51 65 66 0
32 33 36 -54 -37 -50 -55 -64 38 51 65 -66 0
32 33 36 54 37 -50 64 -38 -51 -56 -65 -66 0
32 46 36 49 54 -55 64 -38 51 -56 -65 -66 0
-34 -47 -48 -57 -36 -58 -61 -37 50 -62 -64 0
-34 -47 -48 -57 -36 -58 -61 37 -50 -62 -64 0
-34 -47 -48 -57 -36 49 -61 -37 -59 -62 -64 0
-34 -47 35 -48 -49 -58 -61 -37 -59 -62 -64 0
-34 -47 -35 -57 36 -49 -61 -50 -59 -62 -64 0
-34 -47 -35 48 -36 -58 -61 -50 -59 -62 -64 0
-34 -47 35 -48 -36 -58 -61 -50 -59 -62 -64 0
-34 -47 -35 48 57 36 -49 -58 61 37 -50 62 0
-34 -47 35 -48 57 -36 49 61 -37 50 -59 62 0
-34 -47 -35 48 57 36 -49 61 37 -50 -59 62 0
-34 -47 35 -48 -36 49 58 61 37 -50 -59 64 0
-34 -47 35 -48 -57 36 -49 -37 50 59 62 64 0
-34 -47 35 -48 36 -49 -58 -37 50 59 62 64 0
-34 -47 -35 48 -57 36 -49 -58 61 -37 50 59 62 0
-34 -47 -35 48 57 -36 49 -58 61 37 -50 59 62 0
-34 -47 35 -48 -57 -36 49 -58 61 37 -50 59 62 0
-34 -47 35 -48 -57 36 -49 58 61 -37 50 -59 62 0
-34 -47 -35 48 -57 -36 49 58 61 37 -50 -59 62 0
-34 -47 35 -48 -57 -36 49 -58 61 -37 50 59 64 0
-34 -47 -35 48 -57 36 -49 -58 61 37 -50 59 64 0
-34 -47 35 -48 57 -36 49 58 61 -37 50 -59 64 0
-34 -47 35 -48 57 36 -49 -58 61 -37 50 -59 64 0
-34 -47 -35 48 57 -36 49 -58 61 37 -50 -59 64 0
-34 -47 35 48 57 -36 49 -58 61 -37 50 -62 -64 0
-34 -47 35 -48 57 -36 49 -58 -37 50 59 62 64 0
-34 -47 35 -48 -57 -36 49 58 -37 50 -59 62 64 0
-34 -47 -35 48 57 36 -49 -58 -37 50 -59 62 64 0
-34 -47 -35 48 -57 36 -49 58 37 -50 -59 62 64 0
-34 -47 35 -48 57 -36 49 -58 37 -50 -59 62 64 0
-34 -47 35 48 57 36 -49 -61 37 -50 -59 62 -64 0
-34 -47 -35 -48 -57 -49 -61 -38 -63 -65 0
-34 -47 -35 -48 -57 -36 -61 -51 -63 -65 0
-34 -47 -48 -57 -36 -58 -61 -38 51 -63 -65 0
-34 -47 -48 -57 36 -49 -61 -38 -60 -63 -65 0
-34 -47 -35 48 -49 -58 -61 -38 -60 -63 -65 0
-34 -47 -35 -57 -36 49 -61 -51 -60 -63 -65 0
-34 -47 -35 -57 36 -49 -61 -51 -60 -63 -65 0
-34 -47 35 -48 57 -36 49 -58 61 -38 51 63 0
-34 -47 35 -48 57 36 -49 -58 61 -38 51 -60 65 0
-34 -47 -35 -37 -50 -59 -62 -51 -63 -66 0
-34 -47 -48 -57 -37 -59 -62 38 -51 -63 -66 0
-34 -47 -35 -57 -50 -59 -62 -38 51 -63 -66 0
-34 -47 -35 -57 -50 -59 -62 38 -51 -63 -66 0
-34 -47 -48 -57 -37 50 -62 -38 -60 -63 -66 0
-34 -47 -48 -57 37 -50 -62 -38 -60 -63 -66 0
-34 -47 -35 48 -50 -59 -62 -38 -60 -63 -66 0
-34 -47 35 -48 -50 -59 -62 -38 -60 -63 -66 0
-34 -47 -35 48 -37 -59 -62 -51 -60 -63 -66 0
-34 -47 35 -48 -37 -59 -62 -51 -60 -63 -66 0
-34 -47 -35 -48 57 37 -59 62 38 51 -60 66 0
-34 -47 -35 48 -57 37 59 -62 51 -60 -63 66 0
-34 -47 35 -48 37 -50 -59 -38 51 60 63 66 0
-34 -47 35 -48 -57 -37 50 -59 62 -38 51 60 66 0
-34 -47 35 -48 57 37 -50 -59 62 -38 51 -60 66 0
-34 -47 35 -48 37 50 59 -62 38 -51 -60 -63 66 0
-34 -47 -36 -37 -50 -59 -64 -51 -65 -66 0
-34 -47 -49 -37 -64 -38 -51 -60 -65 -66 0
-34 -47 -36 -50 -64 -38 -51 -60 -65 -66 0
-34 -47 -49 -58 -37 -59 -64 -38 51 -65 -66 0
-34 -47 -49 -58 -37 -59 -64 38 -51 -65 -66 0
-34 -47 -36 -58 -50 -59 -64 -38 51 -65 -66 0
-34 -47 -36 -58 -50 -59 -64 38 -51 -65 -66 0
-34 -47 -49 -58 -37 50 -64 -38 -60 -65 -66 0
-34 -47 -36 49 -50 -59 -64 -38 -60 -65 -66 0
-34 -47 -36 -58 37 -50 -64 -51 -60 -65 -66 0
-34 -47 36 -49 -37 -59 -64 -51 -60 -65 -66 0
-34 -47 -36 49 58 37 -50 -59 64 38 -51 65 0
-34 -47 -36 49 -58 37 -50 -59 64 -38 51 60 65 0
-34 -47 36 -49 -58 37 -50 59 64 -38 51 -60 65 0
-34 -47 -36 49 -58 37 -50 -59 64 38 -51 60 66 0
-34 -47 -36 49 58 -37 50 -59 64 38 -51 -60 66 0
-34 -47 -36 49 -58 37 50 59 64 -38 51 -65 -66 0
-34 -47 36 -49 -58 -37 50 59 38 -51 60 65 66 0
-34 -47 -36 49 -58 37 -50 59 38 -51 -60 65 66 0
-34 -47 36 -49 -58 37 -50 -64 38 51 60 65 -66 0
32 -35 -36 -49 -61 37 50 -62 64 -63 66 0
32 -35 -48 -49 -61 37 -50 -62 -38 -63 66 0
32 35 48 36 61 -37 -50 64 51 63 66 0
32 -35 -48 -36 -61 -50 -62 -38 51 -63 66 0
32 -35 -48 36 49 61 -37 -62 -64 65 -66 0
32 -35 -36 49 -37 -50 -62 -64 -51 65 -66 0
32 -35 -49 -37 -50 -62 -64 -38 51 65 -66 0
32 36 49 61 -37 -50 64 -38 -63 -65 -66 0
32 -36 -49 37 50 62 64 -38 -63 -65 -66 0
33 -34 52 35 53 -57 54 -58 61 -37 -55 62 0
33 -34 52 -35 53 57 -36 54 61 -55 -59 62 0
33 -34 52 -53 -57 54 -58 -61 37 55 -59 -62 0
33 -34 52 -35 53 -36 54 58 61 -55 -59 64 0
33 -34 52 -35 53 -36 -54 -61 -37 55 59 -64 0
33 -34 52 -35 53 -36 54 58 -37 -55 -62 -64 0
33 -34 52 35 53 -57 54 -58 -55 -59 -62 -64 0
33 -34 52 53 -57 36 54 -58 -55 -59 -62 -64 0
33 52 -35 -53 -57 36 54 -61 55 -59 -62 64 0
33 52 -35 53 -36 -54 -58 -61 55 59 62 -64 0
33 -34 52 -35 53 -54 -58 -37 55 59 62 64 0
33 52 53 57 -36 54 61 -37 -55 -59 -62 -64 0
33 52 35 53 54 -58 61 -37 -55 -59 -62 -64 0
33 -34 52 -35 57 -36 -54 -58 61 -37 55 59 62 0
33 -34 52 35 -57 -36 -54 -58 61 37 55 -59 62 0
33 -34 52 -35 57 -36 54 58 61 -37 -55 -59 62 0
33 -34 52 35 -57 36 54 -58 61 -37 -55 -59 62 0
33 -34 52 -35 -53 -57 -36 58 61 -37 55 59 64 0
33 -34 52 -35 -53 -57 36 -58 61 37 55 -59 64 0
33 -34 52 -35 53 57 -36 58 61 -37 -55 -59 64 0
33 -34 52 35 53 -57 36 -58 61 -37 -55 -59 64 0
33 -34 52 -35 -53 -57 -36 54 58 -37 59 62 64 0
33 -34 52 -35 53 57 -36 -54 -58 -37 59 62 64 0
33 -34 52 -35 -53 -57 36 54 -58 37 -59 62 64 0
33 -34 52 35 53 -57 -36 -54 -58 37 -59 62 64 0
33 -34 52 35 53 -57 -36 -54 61 56 -60 63 0
33 -34 52 53 -57 -54 -58 -61 38 56 -60 -65 0
33 52 -35 53 -57 36 54 58 -61 -38 -63 65 0
33 52 -35 -53 -57 54 -58 -61 38 56 -63 65 0
33 52 -35 -53 -57 54 58 -61 -38 56 -63 65 0
33 52 53 -57 -36 -54 -58 -61 38 56 63 -65 0
33 52 35 53 -36 -54 -58 -61 56 -60 63 -65 0
33 -34 52 -35 -53 -57 36 -58 61 38 56 -60 65 0
33 -34 52 -35 -53 37 55 -59 62 56 -60 66 0
33 -34 52 -35 53 -37 -55 -62 -38 56 60 -66 0
33 52 53 57 -37 -55 -59 -62 -38 56 63 -66 0
33 -34 52 -35 -53 55 -59 38 56 -60 63 66 0
33 52 -35 53 55 59 62 -38 -56 -60 -63 -66 0
33 -34 52 35 53 -57 -37 -55 -59 38 -60 63 66 0
33 -34 52 -36 -54 -37 55 59 -64 -38 56 -65 0
33 -34 52 -36 54 -58 37 55 -64 56 -60 -65 0
33 -34 52 -36 54 58 -37 -55 -64 -38 56 -66 0
33 -34 52 54 -58 37 55 -59 64 -38 -56 66 0
33 -34 52 54 -58 -55 -59 -64 38 56 -60 -66 0
33 -34 52 -36 54 58 -37 55 -38 -56 -65 -66 0
33 52 -36 -54 -58 55 59 -64 -38 56 -65 66 0
33 52 36 54 -37 -55 -59 -64 56 -60 65 -66 0
33 52 -36 54 55 59 64 -38 -56 -60 -65 -66 0
33 -34 52 -36 54 58 -37 59 64 -38 -56 -60 66 0
33 -35 -53 -36 54 -61 -55 -62 64 -38 -63 0
33 -35 36 54 -61 -37 -55 -62 64 -63 65 0
33 -35 -53 36 54 55 62 64 38 63 65 0
33 35 -53 36 54 55 -62 64 38 63 65 0
33 -35 53 36 54 55 62 64 38 -63 65 0
33 -35 -36 -54 -61 37 55 -62 64 -63 66 0
33 -53 -36 -54 -61 37 55 -62 64 -63 66 0
33 35 53 54 61 -37 -55 64 38 63 66 0
33 -35 53 54 61 37 55 64 38 -63 66 0
33 -35 -53 36 54 61 -37 -62 -64 65 -66 0
33 -35 -53 -36 -61 37 55 62 -64 -65 66 0
33 53 -36 -54 61 37 55 62 38 65 66 0
33 53 36 -54 -61 37 55 62 38 65 66 0
33 53 36 54 61 -37 -55 62 38 65 66 0
33 53 -36 54 61 37 55 62 38 -65 66 0
33 35 36 54 61 37 -55 62 56 65 -66 0
33 36 54 61 -55 -62 -64 -38 -56 65 -66 0
33 -36 -54 37 55 62 64 -38 -63 -65 -66 0
33 36 54 61 -37 -55 64 -56 -63 -65 -66 0
33 -36 -54 37 55 62 64 -56 -63 -65 -66 0
33 -35 -53 -36 -54 37 -55 64 38 -56 -63 66 0
33 -35 -53 -36 -54 37 -55 62 38 -56 -65 66 0
-34 -35 36 -58 61 -37 59 -62 -38 -60 65 0
-34 -35 57 36 -58 -37 -62 64 -38 -60 65 0
-34 -35 57 36 -58 -37 -59 64 -38 -63 65 0
-34 -35 57 36 -58 -37 -59 62 -60 63 -65 0
-34 35 -57 -36 58 -37 -59 64 -60 -63 65 0
-34 -35 -57 -36 -37 59 -64 38 -60 63 65 0
-34 -35 -36 58 -61 37 -59 62 -38 -60 66 0
-34 -57 36 -58 -61 -37 59 62 -38 -60 66 0
-34 -35 -57 36 -58 61 -37 64 -38 60 -66 0
-34 -35 57 -36 -58 37 -59 64 -38 -63 66 0
-34 35 -57 -36 -58 -37 59 64 -60 -63 66 0
-34 -35 -57 36 -58 61 -37 59 -38 65 -66 0
-34 -35 -57 -36 58 37 -59 62 -38 -65 66 0
-34 -35 -57 -36 58 61 37 -59 -60 65 -66 0
-34 -35 -57 36 -58 -37 59 62 -60 -65 66 0
-34 35 -57 -36 58 -37 -59 62 64 -38 -63 65 0
-34 -35 57 36 -58 -37 -59 62 64 -38 63 -65 0
-34 -35 57 36 -58 -37 62 -64 -38 -60 63 65 0
-34 -35 -57 -58 -37 59 62 -64 38 -60 63 65 0
-34 -35 57 -58 -61 37 -59 64 -38 -60 63 66 0
-34 -35 -36 58 61 -37 -59 64 38 -60 -63 66 0
-34 -35 -57 36 -58 61 -37 59 62 -60 65 -66 0
-34 -35 -57 58 -61 37 59 62 -64 -38 -63 -65 66 0
-34 -57 -36 -58 -61 37 59 62 64 38 -63 -65 -66 0
-39 -40 -47 52 -48 53 -57 -43 -49 -54 -61 0
-39 -40 -47 52 -42 -53 57 -43 -49 -58 -61 0
-39 -40 -47 52 -42 -48 -57 -43 -54 58 -61 0
-39 -40 -47 52 -42 -48 -53 -49 54 -58 -61 0
-39 -40 -47 52 42 48 -53 57 43 -49 54 61 0
-39 -40 -47 52 42 48 53 -57 -43 49 58 61 0
-39 -40 -47 52 42 -48 53 43 49 -54 58 61 0
-39 -40 -47 52 -48 53 -57 -44 -50 -55 -62 0
-39 -40 -47 52 -42 -53 57 -44 -50 -59 -62 0
-39 -40 -47 52 -42 -48 -57 -44 -55 59 -62 0
-39 -40 -47 52 -42 -48 -53 -50 55 -59 -62 0
-39 -40 -47 52 42 48 -53 57 44 -50 55 62 0
-39 -40 -47 52 42 48 53 -57 -44 50 59 62 0
-39 -40 -47 52 42 -48 53 44 50 -55 59 62 0
-39 -40 52 42 48 53 57 -44 50 -55 59 -62 0
-39 -47 52 42 -48 53 -57 44 50 55 59 -62 0
-39 -47 52 42 48 53 57 44 -50 55 -59 -62 0
-39 -40 -47 52 -48 53 -57 -45 -51 -56 -63 0
-39 -40 -47 52 -42 -53 57 -45 -51 -60 -63 0
-39 -40 -47 52 -42 -48 -57 -45 -56 60 -63 0
-39 -40 -47 52 -49 54 -58 -44 -50 -55 -64 0
-39 -40 -47 52 -43 -54 58 -44 -50 -59 -64 0
-39 -40 -47 52 -43 -49 -58 -44 -55 59 -64 0
-39 -40 -47 52 -43 -49 -54 -50 55 -59 -64 0
-39 -40 -47 52 43 49 -54 58 44 -50 55 64 0
-39 -40 -47 52 43 49 54 -58 -44 50 59 64 0
-39 -40 -47 52 43 -49 54 44 50 -55 59 64 0
-39 -40 -47 52 -49 54 -58 -45 -51 -56 -65 0
-39 -40 -47 52 -43 -54 58 -45 -51 -60 -65 0
-39 -40 -47 52 -43 -49 -58 -45 -56 60 -65 0
-39 -40 -47 52 -43 -49 -54 -51 56 -60 -65 0
-39 -40 -47 52 43 49 -54 58 45 -51 56 65 0
-39 -40 -47 52 43 49 54 -58 -45 51 60 65 0
-39 -40 -47 52 -50 55 -59 -45 -51 -56 -66 0
-39 -40 -47 52 -44 -55 59 -45 -51 -60 -66 0
-39 -40 -47 52 -44 -50 -59 -45 -56 60 -66 0
-39 -40 -47 52 -44 -50 -55 -51 56 -60 -66 0
-39 -40 -47 52 44 50 -55 59 45 -51 56 66 0
-39 -40 -47 52 44 50 55 -59 -45 51 60 66 0
-39 -40 52 -44 50 -55 59 45 51 56 60 -66 0
-39 -40 52 44 50 55 59 -45 51 -56 60 -66 0
-39 -40 -48 53 -43 -54 -61 -44 -50 -62 -64 0
-39 -40 -48 53 -43 -49 -61 -44 -55 -62 -64 0
-39 -40 -42 -48 -49 54 -61 -44 -55 -62 -64 0
-39 -40 -42 -48 49 -54 -61 -44 -55 -62 -64 0
-39 -40 -42 -53 -43 -49 -61 -50 55 -62 -64 0
-39 -40 -42 -53 -43 -49 -61 50 -55 -62 -64 0
-39 -40 -42 -48 -43 -54 -61 50 -55 -62 -64 0
-39 -40 42 48 -53 -43 -49 54 61 -50 55 62 0
-39 -40 42 -48 53 -43 49 -54 61 50 -55 62 0
-39 -40 42 -48 53 49 -54 61 -44 50 -55 62 0
-39 -40 -42 -48 53 43 49 -54 61 -50 55 64 0
-39 -40 -48 53 43 49 -54 61 -44 -50 55 64 0
-39 -40 42 53 -43 49 -54 -61 -44 50 62 -64 0
-39 -40 -42 -48 53 -49 54 44 50 -55 62 64 0
-39 -40 42 53 -43 49 61 -44 50 -55 -62 -64 0
-39 -40 -42 -48 53 -43 49 -54 61 44 -50 55 62 0
-39 -40 42 -48 53 43 49 -54 61 -44 -50 55 62 0
-39 -40 -42 48 -53 43 49 -54 61 -44 -50 55 62 0
-39 -40 -42 48 -53 -43 -49 54 61 44 50 -55 62 0
-39 -40 -42 -48 53 43 -49 54 61 -44 50 -55 62 0
-39 -40 -42 48 -53 -43 -49 54 61 44 -50 55 64 0
-39 -40 42 48 -53 -43 49 -54 61 -44 -50 55 64 0
-39 -40 -42 -48 53 43 -49 54 61 44 50 -55 64 0
-39 -40 -42 -48 53 -43 49 -54 61 44 50 -55 64 0
-39 -40 42 -48 53 -43 -49 54 61 -44 50 -55 64 0
-39 -40 42 48 53 -43 49 -54 61 50 -55 -62 -64 0
-39 -40 -42 48 -53 43 -49 54 -44 -50 55 62 64 0
-39 -40 42 -48 53 -43 49 -54 -44 -50 55 62 64 0
-39 -40 42 48 -53 -43 -49 54 -44 50 -55 62 64 0
-39 -40 -42 -48 53 43 49 -54 -44 50 -55 62 64 0
-39 -40 42 48 53 49 -54 -61 -44 50 -55 62 -64 0
-39 -40 -48 53 43 49 54 -61 -44 -50 55 -62 64 0
-39 -40 -53 -43 -49 -54 -61 -51 -63 -65 0
-39 -40 -42 -48 -53 -49 -61 -56 -63 -65 0
-39 -40 -48 -43 -49 -54 -61 -56 -63 -65 0
-39 -40 48 -53 -43 -54 -61 -45 -51 -63 -65 0
-39 -40 -48 53 -43 -49 -61 -45 -56 -63 -65 0
-39 -40 -42 -48 -49 54 -61 -45 -56 -63 -65 0
-39 -40 42 53 -43 49 61 -45 51 -56 -63 -65 0
-39 -40 -42 -48 53 43 49 -54 -45 51 -56 63 65 0
-39 -40 -53 -50 -62 -45 -51 -56 -63 -66 0
-39 -40 -48 -55 -62 -45 -51 -56 -63 -66 0
-39 -40 -42 -53 50 -55 -62 -45 -51 -63 -66 0
-39 -40 -48 53 -44 -50 -62 -45 -56 -63 -66 0
-39 -40 48 -53 -44 -50 -62 -45 -56 -63 -66 0
-39 -40 -42 -48 -50 55 -62 -45 -56 -63 -66 0
-39 -40 -42 -48 50 -55 -62 -45 -56 -63 -66 0
-39 -40 -42 -53 -44 -50 -62 51 -56 -63 -66 0
-39 -40 -42 -48 -44 -55 -62 51 -56 -63 -66 0
-39 -40 42 -48 53 -44 50 -55 62 51 -56 63 0
-39 -40 48 -53 44 -50 55 62 -45 51 -56 66 0
-39 -40 -42 48 -53 44 55 -62 -45 51 -63 66 0
-39 -40 -42 48 -53 44 -50 55 -45 -51 56 63 66 0
-39 -40 -48 53 -44 -50 55 -62 45 51 56 -63 66 0
-39 -40 -54 -44 -50 -55 -64 -51 -65 -66 0
-39 -40 -54 -50 -64 -45 -51 -56 -65 -66 0
-39 -40 49 -54 -44 -55 -64 -45 -51 -65 -66 0
-39 -40 -43 -54 -50 55 -64 -45 -51 -65 -66 0
-39 -40 -43 -54 50 -55 -64 -45 -51 -65 -66 0
-39 -40 49 -54 -44 -50 -64 -45 -56 -65 -66 0
-39 -40 -43 -49 -50 55 -64 -45 -56 -65 -66 0
-39 -40 -43 -49 50 -55 -64 -45 -56 -65 -66 0
-39 -40 -43 -54 -44 -50 -64 -51 56 -65 -66 0
-39 -40 -43 -49 -44 -55 -64 -51 56 -65 -66 0
-39 -40 -43 -49 -44 -55 -64 51 -56 -65 -66 0
-39 -40 -43 -49 54 44 50 -55 64 -51 56 66 0
-39 -40 49 -54 44 -50 55 64 -45 51 -56 66 0
-39 -40 -43 49 -44 50 -55 -64 45 56 65 -66 0
-39 -40 43 49 -54 -44 50 -55 64 -45 -51 56 66 0
-39 -40 43 -49 54 -44 -50 55 64 -45 51 -56 66 0
-39 -40 -43 49 -54 44 50 55 64 51 -56 -65 -66 0
-39 -47 42 -57 -49 -58 -61 -44 -50 -62 -64 0
-39 -47 -48 -57 -43 -49 -61 44 -59 -62 -64 0
-39 -47 -42 -48 -49 -58 -61 -44 59 -62 -64 0
-39 -47 -42 -48 -49 -58 -61 44 -59 -62 -64 0
-39 -47 -42 57 -43 -49 -61 -50 -59 -62 -64 0
-39 -47 -42 -48 -43 58 -61 -50 -59 -62 -64 0
-39 -47 -42 -48 43 -58 -61 -50 -59 -62 -64 0
-39 -47 -42 48 57 43 -49 -58 61 44 -59 62 0
-39 -47 42 48 -57 -43 58 61 -44 -50 59 62 0
-39 -47 -42 48 57 43 -58 61 44 -50 -59 62 0
-39 -47 -42 -48 57 43 49 -58 61 -44 59 64 0
-39 -47 42 -48 -57 -43 49 58 61 44 -59 64 0
-39 -47 -42 -48 57 -49 58 -61 44 50 -62 64 0
-39 -47 42 -48 -57 43 -58 -44 50 59 62 64 0
-39 -47 42 -57 43 -49 -58 -44 50 59 62 64 0
-39 -47 -42 -48 57 43 -49 -58 61 -44 50 59 62 0
-39 -47 42 -48 -57 43 49 -58 61 -44 -50 59 62 0
-39 -47 -42 48 57 -43 -49 58 61 44 50 -59 62 0
-39 -47 42 -48 -57 -43 -49 58 61 44 50 -59 62 0
-39 -47 -42 -48 57 -43 49 58 61 44 -50 -59 62 0
-39 -47 42 48 -57 -43 49 58 61 44 -50 -59 62 0
-39 -47 42 -48 -57 -43 -49 58 61 -44 50 59 64 0
-39 -47 42 48 -57 43 -49 -58 61 -44 -50 59 64 0
-39 -47 -42 -48 57 -43 49 58 61 44 50 -59 64 0
-39 -47 -42 -48 57 43 -49 -58 61 44 50 -59 64 0
-39 -47 -42 48 57 -43 -49 58 61 44 -50 -59 64 0
-39 -47 42 48 -57 -43 -49 58 -44 50 59 62 64 0
-39 -47 42 -48 -57 -43 49 58 -44 -50 59 62 64 0
-39 -47 -42 48 57 43 -49 -58 -44 -50 59 62 64 0
-39 -47 42 -48 -57 -43 49 58 44 50 -59 62 64 0
-39 -47 42 48 -57 -43 -49 58 44 -50 -59 62 64 0
-39 -47 -42 -48 57 43 49 -58 44 -50 -59 62 64 0
-39 -47 -42 -48 57 -43 58 -61 44 50 59 62 -64 0
-39 -47 -57 -43 -49 -58 -61 -45 -63 -65 0
-39 -47 -42 -48 -57 -43 -61 -60 -63 -65 0
-39 -47 -42 -43 -49 -58 -61 -60 -63 -65 0
-39 -47 -48 -57 43 -58 -61 -45 -51 -63 -65 0
-39 -47 -42 57 -49 -58 -61 -45 -51 -63 -65 0
-39 -47 42 -57 -49 -58 -61 -45 -51 -63 -65 0
-39 -47 -42 -48 -49 -58 -61 45 -60 -63 -65 0
-39 -47 -42 57 -43 -49 -61 -51 -60 -63 -65 0
-39 -47 -42 -48 -43 58 -61 -51 -60 -63 -65 0
-39 -47 42 -48 -57 49 58 -61 45 -51 -63 65 0
-39 -47 -42 -48 57 -43 58 45 51 -60 63 65 0
-39 -47 -42 -48 -57 -59 -62 -45 -63 -66 0
-39 -47 -42 -48 -57 -44 -62 -60 -63 -66 0
-39 -47 -42 -44 -50 -59 -62 -60 -63 -66 0
-39 -47 -57 -44 -62 -45 -51 -60 -63 -66 0
-39 -47 -42 57 -50 -59 -62 -45 -51 -63 -66 0
-39 -47 42 -57 -50 -59 -62 -45 -51 -63 -66 0
-39 -47 -48 -57 -44 -50 -62 -45 60 -63 -66 0
-39 -47 -48 -57 -44 -50 -62 45 -60 -63 -66 0
-39 -47 -42 -48 -50 -59 -62 45 -60 -63 -66 0
-39 -47 -42 57 -44 -50 -62 -51 -60 -63 -66 0
-39 -47 -42 -48 -44 59 -62 -51 -60 -63 -66 0
-39 -47 -42 48 57 44 -50 -59 62 45 -60 63 0
-39 -47 42 -48 -57 -44 -50 59 62 -45 51 60 66 0
-39 -47 42 48 57 44 -50 -59 62 45 -60 -63 -66 0
-39 -47 -43 -44 -50 -59 -64 -60 -65 -66 0
-39 -47 -43 -59 -64 -45 -51 -60 -65 -66 0
-39 -47 -49 -58 -44 59 -64 -45 -51 -65 -66 0
-39 -47 -43 58 -50 -59 -64 -45 -51 -65 -66 0
-39 -47 43 -58 -50 -59 -64 -45 -51 -65 -66 0
-39 -47 -49 -58 -44 -50 -64 -45 60 -65 -66 0
-39 -47 -49 -58 -44 -50 -64 45 -60 -65 -66 0
-39 -47 -43 -49 -50 -59 -64 -45 60 -65 -66 0
-39 -47 -43 -49 -50 -59 -64 45 -60 -65 -66 0
-39 -47 43 -58 -44 -50 -64 -51 -60 -65 -66 0
-39 -47 -43 -49 44 -59 -64 -51 -60 -65 -66 0
-39 -47 43 -49 -58 -44 50 59 64 45 -60 66 0
-39 -47 43 -58 -44 50 59 64 45 -51 -60 66 0
-39 -47 -43 58 -44 -50 59 45 51 -60 65 66 0
-39 -47 43 49 -58 44 -50 -59 64 -45 -51 60 66 0
-39 -47 -43 -49 58 44 50 59 64 -45 60 -65 -66 0
-39 -47 43 -49 -58 -44 50 59 -45 -51 60 65 66 0
-39 -47 43 49 -58 -44 -50 59 45 -51 -60 65 66 0
-39 -48 -43 49 61 -44 -50 64 45 -51 -63 0
-39 -48 -43 -49 -44 50 62 64 45 -51 -63 0
-39 42 -48 -43 49 -44 -50 64 -51 -63 65 0
-39 -42 48 -43 -49 44 -50 64 -45 -63 66 0
-39 -42 -48 -43 49 44 -50 62 -45 -65 66 0
-39 -42 -48 -43 49 61 44 -50 -51 65 -66 0
-39 -42 -48 43 -49 -44 50 62 -51 -65 66 0
-39 -42 -48 49 -61 44 50 62 -64 -45 -63 -65 66 0
-40 41 52 42 -53 57 -43 -58 61 -55 59 62 0
-40 41 52 -42 53 57 -43 58 61 -55 -59 62 0
-40 41 52 -53 -57 43 -54 58 -61 -55 59 -62 0
-40 41 52 -53 -57 -43 54 58 61 -44 59 64 0
-40 41 52 -53 57 43 -54 58 61 -44 -59 64 0
-40 41 52 -42 -57 43 -54 58 61 -55 59 64 0
-40 41 52 -42 57 -43 54 58 61 -55 -59 64 0
-40 41 52 -53 -57 -43 58 -44 55 59 62 64 0
-40 41 52 -42 -57 -54 58 44 -55 59 62 64 0
-40 41 52 -42 57 54 58 -44 -55 59 -62 -64 0
41 52 -53 43 54 58 61 -44 -55 59 -62 -64 0
-40 41 52 -42 53 -43 -54 -58 61 -44 55 59 62 0
-40 41 52 -42 53 -43 54 58 61 -44 -55 -59 62 0
-40 41 52 -42 -53 -57 -43 54 61 -44 55 59 64 0
-40 41 52 -42 53 57 -43 54 61 -44 -55 -59 64 0
-40 41 52 -42 -53 -57 -43 54 58 -44 55 62 64 0
-40 41 52 -42 53 57 -43 -54 -58 -44 55 62 64 0
-40 41 52 -42 53 57 -43 58 61 -56 -60 63 0
-40 41 52 -53 -57 -43 54 58 61 -45 60 65 0
-40 41 52 -42 57 -43 54 58 61 -56 -60 65 0
-40 41 52 -42 57 -43 54 58 -45 -60 -63 -65 0
41 52 53 57 -43 -54 -58 -61 -45 60 63 -65 0
41 52 -42 57 54 58 61 -45 -56 -60 -63 -65 0
-40 41 52 -42 -53 -57 -43 54 61 -45 56 60 65 0
-40 41 52 -42 53 57 -55 -59 62 -45 60 63 0
-40 41 52 -53 -57 -44 55 59 62 -45 60 66 0
-40 41 52 -53 57 -44 -55 59 -62 45 60 -66 0
-40 41 52 -42 57 -44 -55 59 -62 56 60 -66 0
-40 41 52 -42 53 57 -44 59 -45 -60 -63 -66 0
-40 41 52 -42 57 -44 55 59 -45 -60 -63 -66 0
41 52 -42 -53 -57 55 59 -62 -45 60 -63 66 0
41 52 53 57 -44 -55 -59 -62 -45 60 63 -66 0
41 52 42 53 57 -55 62 -45 -56 60 -63 -66 0
-40 41 52 -42 53 57 -44 -55 -59 -45 56 63 66 0
-40 41 52 43 -54 58 -44 -59 64 -56 60 65 0
-40 41 52 -43 54 58 -44 59 -45 -60 -65 -66 0
41 52 43 58 -44 -55 -59 -64 -56 60 65 -66 0
-40 41 52 54 58 -44 59 -45 -56 60 -65 -66 0
41 52 -43 58 55 59 64 -45 -56 -60 -65 -66 0
-40 -53 -43 54 61 -44 -55 64 45 -56 -63 0
-40 42 -53 -43 54 -55 -62 64 -45 -56 65 0
-40 -42 53 43 -54 -44 -55 64 -45 -63 65 0
-40 -42 53 43 -54 -44 -55 62 -56 63 -65 0
-40 42 -53 -43 54 -44 -55 64 -56 -63 65 0
-40 -53 43 -54 -61 -44 55 62 -45 -56 66 0
-40 -42 53 -43 -54 44 -55 64 -45 -63 66 0
-40 42 -53 -43 -54 -44 55 64 -56 -63 66 0
-40 -42 -53 43 -54 61 -44 55 -45 65 -66 0
-40 -42 -53 -43 54 44 -55 62 -45 -65 66 0
-40 -42 -53 -43 54 61 44 -55 -56 65 -66 0
-40 -42 -53 43 -54 -44 55 62 -56 -65 66 0
-40 42 -53 -43 -54 61 -44 55 64 -45 -63 66 0
-40 -42 53 -43 -54 61 44 -55 64 -56 -63 66 0
-40 -42 53 -43 61 44 -55 -64 -45 -56 63 66 0
-40 42 -53 -43 -54 61 -44 -62 -45 56 65 66 0
-40 -42 53 -43 -54 61 -55 -62 45 -56 65 66 0
-40 -42 -53 43 54 61 55 -62 -64 -45 -63 65 -66 0
-40 -42 -53 54 -61 44 55 62 -64 -45 -63 -65 66 0
-40 53 -43 -54 -61 44 55 -62 64 -45 -63 -65 66 0
-40 -53 -43 -54 -61 44 55 62 64 45 -63 -65 -66 0
-40 -42 -53 43 -61 44 55 62 -64 -56 -63 -65 66 0
-40 -42 -43 -54 -61 44 55 62 64 56 -63 -65 -66 0
41 -42 43 -58 61 -44 -59 -62 -64 -60 -66 0
41 42 57 -43 -58 61 -59 -62 -64 63 -66 0
41 -42 -43 -58 -61 44 59 -62 64 -63 66 0
41 57 -43 -58 61 44 64 45 60 63 66 0
41 -43 -58 44 59 62 64 -45 -63 -65 -66 0
41 -42 -43 58 -59 64 -45 -60 -63 -65 -66 0
46 -47 52 -48 53 -57 54 58 -61 -50 55 -62 0
46 -47 52 -48 53 -57 -49 54 -61 55 59 -62 0
46 -47 52 48 53 -49 54 -58 -61 55 -59 -64 0
46 -47 52 48 53 -57 54 -58 -55 -59 -62 -64 0
46 -47 52 -53 -57 -49 54 -50 55 59 62 64 0
46 -47 52 53 -57 -49 -54 50 55 -59 62 64 0
46 52 -48 53 54 58 61 -50 -55 -59 -62 -64 0
46 -47 52 -48 57 -49 -54 -58 61 -50 55 59 62 0
46 -47 52 -48 -53 -57 -49 58 61 -50 55 59 64 0
46 -47 52 -48 53 57 -49 58 61 -50 -55 -59 64 0
46 -47 52 -48 -53 -57 -49 54 58 -50 59 62 64 0
46 -47 52 -48 53 57 -49 -54 -58 -50 59 62 64 0
46 -47 52 -48 53 -57 54 58 -61 -51 56 -63 0
46 -47 52 -53 -57 -49 54 -51 56 60 63 65 0
46 52 48 53 57 -58 61 -51 56 -60 -63 -65 0
46 -47 52 48 53 -57 -49 -54 -58 51 -60 63 65 0
46 -47 52 -48 53 -57 55 59 -62 -51 56 -63 0
46 52 -48 -53 -57 55 59 -62 -51 56 -63 66 0
46 -47 52 -48 -53 55 -59 51 56 -60 63 66 0
46 -47 52 -48 -53 -57 50 -59 62 51 56 -60 66 0
46 -47 52 -48 53 57 -50 -55 -59 -51 60 63 66 0
46 -47 52 -49 54 -58 55 59 -64 -51 56 -65 0
46 -47 52 49 54 -58 -50 -55 64 56 -60 65 0
46 -47 52 -49 54 58 -50 55 64 -56 -60 65 0
46 -47 52 -54 -58 -50 55 59 64 -51 56 66 0
46 -47 52 -49 54 -50 55 59 64 -56 -60 66 0
46 52 -49 -54 -58 55 59 -64 -51 56 -65 66 0
46 -47 52 -49 54 55 59 -51 56 -60 -65 -66 0
46 52 49 54 58 -59 64 -51 56 -60 -65 -66 0
46 52 -58 50 55 59 64 -51 56 -60 -65 -66 0
46 -47 52 -49 -54 -58 -50 59 64 -51 56 60 66 0
46 -48 -53 -49 -61 50 -55 -62 64 -56 -63 0
46 48 53 -49 54 55 62 64 51 63 -65 0
46 48 53 -49 -54 61 -55 -62 -64 63 -66 0
46 -48 -53 49 54 61 -55 -62 -64 65 -66 0
46 -49 -54 50 55 62 64 -56 -63 -65 -66 0
-47 48 -57 -49 61 -50 59 -64 -51 -60 63 0
-47 -57 -49 58 61 -50 -59 64 51 -60 -63 0
-47 48 -57 -49 61 -50 -59 62 -51 60 -65 0
-47 -48 49 -58 61 -50 59 -62 -51 -60 65 0
-47 -48 57 -49 -58 50 -59 64 -51 -63 66 0
-47 48 -57 -49 -58 -50 59 64 -60 -63 66 0
-47 -48 -57 49 -58 61 -50 59 -51 65 -66 0
-47 -48 -57 -49 58 61 50 -59 -60 65 -66 0
-47 -48 -57 49 -58 -50 59 62 -60 -65 66 0
-47 -48 -57 -58 -50 59 62 -64 51 -60 63 65 0
-47 -48 57 -49 -58 61 50 -59 64 -60 -63 66 0
-47 -48 57 -49 61 50 -59 -64 -51 -60 63 66 0
-47 -48 -57 -49 58 61 50 -59 62 -51 65 -66 0
-47 -48 -57 49 -58 61 -50 59 62 -60 65 -66 0
-47 -48 57 -58 -61 -50 -59 62 51 -60 65 66 0
-47 -48 -57 49 58 61 59 -62 -64 -51 -63 65 -66 0
-47 -57 -49 -58 -61 50 59 62 64 51 -63 -65 -66 0
-47 -48 -57 49 58 61 50 -62 -64 -60 -63 65 -66 0
52 53 57 -58 -61 -55 -59 62 -64 63 -65 0
52 -53 54 58 -61 -55 -59 -62 64 -63 65 0
52 -57 54 58 -61 -55 -59 -62 64 -63 65 0
52 -53 -57 54 58 59 62 64 56 63 65 0
52 53 -57 54 58 59 -62 64 56 63 65 0
52 -53 -57 54 58 55 62 64 60 63 65 0
52 53 57 -54 -58 55 62 64 60 63 65 0
52 -53 57 54 58 55 -62 64 60 63 65 0
52 53 57 -54 58 55 62 -64 60 63 65 0
52 -53 -54 -58 -61 55 59 -62 64 -63 66 0
52 -57 -54 -58 -61 55 59 -62 64 -63 66 0
52 53 57 58 61 -55 -59 64 56 63 66 0
52 53 57 54 61 -55 -59 64 60 63 66 0
52 57 54 58 61 55 64 -56 -60 63 66 0
52 53 54 58 61 59 64 56 -60 63 -66 0
52 -53 -57 -54 -61 55 59 62 -64 -65 66 0
52 57 54 58 61 -55 -59 62 56 65 66 0
52 57 54 58 61 55 -59 -62 56 65 66 0
52 53 -54 -58 61 55 59 62 60 65 66 0
52 53 54 58 61 -55 -59 62 60 65 66 0
52 54 58 61 -59 -62 -64 -56 -60 65 -66 0
52 54 58 61 -55 -59 64 -56 -63 -65 -66 0
52 54 58 61 -55 -59 64 -60 -63 -65 -66 0
52 -54 -58 55 59 62 64 -60 -63 -65 -66 0
12 0
13 0
-14 0
-15 0
-16 0
-17 0
-23 0
-24 0
25 0
-26 0
-31 0
-32 0
-33 0
34 0
40 0
-41 0
47 0
-52 0
