p cnf 66 1104
12 13 18 22 27 35 0
12 13 19 22 28 36 0
12 13 20 22 29 37 0
12 13 21 22 30 38 0
13 15 17 32 34 47 0
13 15 18 32 35 48 0
13 15 19 32 36 49 0
13 15 20 32 37 50 0
13 15 21 32 38 51 0
13 18 19 35 36 61 0
13 19 20 36 37 64 0
-14 -18 -19 -42 -43 -61 0
-14 -18 -20 -42 -44 -62 0
-14 -18 -21 -42 -45 -63 0
-14 -19 -20 -43 -44 -64 0
-14 -19 -21 -43 -45 -65 0
-14 -20 -21 -44 -45 -66 0
15 17 18 47 48 57 0
15 17 19 47 49 58 0
15 17 20 47 50 59 0
15 17 21 47 51 60 0
-16 -18 -19 -53 -54 -61 0
-16 -18 -20 -53 -55 -62 0
-16 -18 -21 -53 -56 -63 0
-16 -19 -20 -54 -55 -64 0
-16 -19 -21 -54 -56 -65 0
-16 -20 -21 -55 -56 -66 0
17 19 20 58 59 64 0
-19 -20 -21 -64 -65 -66 0
22 23 25 31 33 40 0
22 23 27 31 35 42 0
22 23 28 31 36 43 0
22 23 29 31 37 44 0
22 23 30 31 38 45 0
23 25 28 40 43 54 0
23 25 29 40 44 55 0
23 25 30 40 45 56 0
-24 -27 -28 -48 -49 -61 0
-24 -27 -30 -48 -51 -63 0
-24 -28 -29 -49 -50 -64 0
-24 -28 -30 -49 -51 -65 0
-24 -29 -30 -50 -51 -66 0
25 28 29 54 55 64 0
-26 -27 -28 -57 -58 -61 0
-26 -27 -29 -57 -59 -62 0
-26 -27 -30 -57 -60 -63 0
-26 -28 -29 -58 -59 -64 0
-26 -28 -30 -58 -60 -65 0
-26 -29 -30 -59 -60 -66 0
-27 -29 -30 -62 -63 -66 0
-28 -29 -30 -64 -65 -66 0
31 35 36 42 43 61 0
31 35 37 42 44 62 0
31 35 38 42 45 63 0
31 36 37 43 44 64 0
31 36 38 43 45 65 0
31 37 38 44 45 66 0
32 35 38 48 51 63 0
32 36 37 49 50 64 0
32 36 38 49 51 65 0
32 37 38 50 51 66 0
-33 -35 -36 -53 -54 -61 0
-33 -37 -38 -55 -56 -66 0
-34 -35 -38 -57 -60 -63 0
-34 -36 -37 -58 -59 -64 0
-34 -36 -38 -58 -60 -65 0
-34 -37 -38 -59 -60 -66 0
-35 -36 -38 -61 -63 -65 0
-35 -37 -38 -62 -63 -66 0
-36 -37 -38 -64 -65 -66 0
-39 -43 -44 -49 -50 -64 0
-39 -43 -45 -49 -51 -65 0
-39 -44 -45 -50 -51 -66 0
40 42 43 53 54 61 0
40 43 44 54 55 64 0
40 43 45 54 56 65 0
40 44 45 55 56 66 0
-41 -43 -45 -58 -60 -65 0
-41 -44 -45 -59 -60 -66 0
-46 -48 -49 -53 -54 -61 0
-46 -48 -50 -53 -55 -62 0
-46 -48 -51 -53 -56 -63 0
-46 -49 -50 -54 -55 -64 0
47 48 50 57 59 62 0
47 49 50 58 59 64 0
47 49 51 58 60 65 0
52 53 54 57 58 61 0
52 54 55 58 59 64 0
52 54 56 58 60 65 0
52 55 56 59 60 66 0
-53 -55 -56 -62 -63 -66 0
-14 -16 -40 0
-24 -26 -47 0
-33 -34 -52 0
61 62 64 0
61 63 65 0
62 63 66 0
64 65 66 0
12 13 22 23 31 15 32 -39 25 40 -46 18 27 48 53 0
12 13 22 23 31 32 -39 -16 25 40 -46 -18 -27 -35 -42 -48 53 0
12 13 22 23 31 15 32 -39 25 40 -46 19 28 49 54 0
12 13 22 23 31 15 32 -16 25 40 -46 36 43 49 54 0
12 13 22 23 31 15 32 -39 -16 25 -46 -19 -28 -36 -43 49 -54 0
12 13 22 23 31 32 -39 -16 25 40 -46 -19 -28 -36 -43 -49 54 0
12 13 22 23 31 15 32 -39 25 40 -46 20 29 50 55 0
12 13 22 23 31 15 32 -16 25 40 -46 37 44 50 55 0
12 13 22 23 31 32 -39 -16 25 40 -46 -20 -29 -37 -44 -50 55 0
12 13 22 23 31 15 32 -39 25 40 -46 21 30 51 56 0
12 13 22 23 31 15 32 -16 25 40 -46 38 45 51 56 0
12 13 22 23 31 15 32 -39 -16 25 -46 -21 -30 -38 -45 51 -56 0
12 13 22 23 31 32 -39 -16 25 40 -46 -21 -30 -38 -45 -51 56 0
12 13 22 23 31 15 32 17 -26 -41 47 35 42 48 57 0
12 13 22 23 31 15 32 -39 17 -26 -41 -18 -27 -35 42 -48 -57 0
12 13 22 31 15 32 -39 17 -26 -41 47 -18 -27 -35 -42 -48 57 0
12 13 22 23 31 15 32 -39 17 -41 47 19 28 43 58 0
12 13 22 23 31 15 32 17 -26 -41 47 36 43 49 58 0
12 13 22 23 31 15 32 -39 17 -26 -41 -19 -28 -36 43 -49 -58 0
12 13 22 31 15 32 -39 17 -26 -41 47 -19 -28 -36 -43 -49 58 0
12 13 22 23 31 15 32 -39 17 -41 47 20 29 44 59 0
12 13 22 23 31 15 32 17 -26 -41 47 37 44 50 59 0
12 13 22 23 31 15 32 -39 17 -26 -41 -20 -29 -37 44 -50 -59 0
12 13 22 31 15 32 -39 17 -26 -41 47 -20 -29 -37 -44 -50 59 0
12 13 22 23 31 15 32 17 -26 -41 47 38 45 51 60 0
12 13 22 23 31 15 32 -39 17 -26 -41 -21 -30 -38 45 -51 -60 0
12 13 22 31 15 32 -39 17 -26 -41 47 -21 -30 -38 -45 -51 60 0
13 22 -14 23 31 15 -24 32 -39 18 35 19 -28 -36 -49 -61 0
12 13 22 -14 31 32 -39 -18 -27 35 -42 -48 -19 28 -36 -43 49 0
12 13 22 31 -24 32 -39 -18 -27 35 -42 -48 19 -28 -36 43 -49 0
13 22 -14 23 31 15 -24 32 -39 18 35 20 -29 -37 -50 -62 0
12 13 22 31 -24 32 -39 18 -27 -35 42 -48 -20 -29 37 -44 -50 0
12 13 22 23 31 15 32 -39 -18 -27 -35 -42 48 -20 29 -50 -62 0
13 22 -14 23 31 15 -24 32 -39 27 35 -21 30 -38 -45 -63 0
13 22 -14 23 31 15 -24 32 -39 18 35 21 -30 -38 -51 -63 0
12 13 22 23 31 32 -39 -19 28 -36 -43 -49 -29 37 -44 50 0
13 22 -14 23 31 15 -24 32 -39 19 36 20 -29 -37 -50 -64 0
12 13 22 -14 31 32 -39 -19 -28 36 -43 -49 -20 29 -37 -44 50 0
12 13 22 31 -24 32 -39 -19 -28 36 -43 -49 20 -29 -37 44 -50 0
12 13 22 23 31 32 -39 -19 28 -36 -43 -49 -30 38 -45 51 0
13 22 -14 23 31 15 -24 32 -39 19 -28 -36 -49 21 38 -65 0
13 22 -14 23 31 15 -24 32 -39 -19 28 -36 -43 30 38 -65 0
13 22 -14 23 31 15 -24 32 -39 28 36 -21 30 -38 -45 -65 0
13 22 -14 23 31 15 -24 32 -39 19 36 21 -30 -38 -51 -65 0
12 22 23 31 15 -24 32 -39 -19 28 -43 -49 -21 30 -38 -45 -65 0
12 13 22 23 31 15 32 20 29 44 -50 38 45 51 -66 0
13 22 -14 23 31 15 -24 32 -39 29 37 -21 30 -38 -45 -66 0
13 22 -14 23 31 15 -24 32 -39 20 37 21 -30 -38 -51 -66 0
12 13 31 15 32 -39 -20 -29 -37 44 21 -30 -38 -45 -51 -66 0
12 13 -14 23 31 15 32 -39 20 -29 -44 -50 21 -30 -38 -51 -66 0
12 13 22 23 31 25 40 17 -34 -41 52 18 27 53 57 0
12 13 22 23 -16 25 40 -26 -34 -41 52 -18 27 -35 53 -57 0
12 13 22 23 -16 25 40 17 -26 -34 -41 18 27 -42 -53 -57 0
12 23 31 -16 25 40 17 -26 -34 -41 -18 -27 -35 42 -53 -57 0
12 13 22 31 -16 25 -26 -34 -41 52 -18 -27 35 -42 -53 -57 0
12 13 22 23 31 25 40 17 -34 -41 52 19 28 54 58 0
12 13 22 23 -16 25 40 -26 -34 -41 52 -19 28 -36 54 -58 0
12 13 22 23 -16 25 40 17 -26 -34 -41 19 28 -43 -54 -58 0
12 23 31 -16 25 40 17 -26 -34 -41 -19 -28 -36 43 -54 -58 0
12 13 22 31 -16 25 -26 -34 -41 52 -19 -28 36 -43 -54 -58 0
12 13 22 23 31 25 40 17 -34 -41 52 20 29 55 59 0
12 13 22 23 -16 25 40 -26 -34 -41 52 -20 29 -37 55 -59 0
12 23 31 -16 25 40 17 -26 -34 -41 -20 -29 -37 44 -55 -59 0
12 13 22 31 -16 25 -26 -34 -41 52 -20 -29 37 -44 -55 -59 0
12 13 22 23 31 25 40 17 -34 -41 52 21 30 56 60 0
12 13 22 23 -16 25 40 -26 -34 -41 52 -21 30 -38 56 -60 0
12 13 22 23 -16 25 40 17 -26 -34 -41 21 30 -45 -56 -60 0
12 23 31 -16 25 40 17 -26 -34 -41 -21 -30 -38 45 -56 -60 0
12 13 22 31 -16 25 -26 -34 -41 52 -21 -30 38 -45 -56 -60 0
12 22 -14 23 31 -16 25 -18 27 -35 -42 -53 -19 -28 36 -43 54 0
12 13 22 23 31 25 40 18 27 53 21 38 45 -56 -63 0
12 22 23 31 -33 40 -18 -27 -42 53 -21 30 -38 -45 -56 -63 0
12 13 22 23 31 -16 25 -19 -28 36 -43 -54 -20 29 -37 55 0
12 13 22 -14 23 -16 25 -33 40 28 36 -20 -29 37 -44 -64 0
12 13 22 23 31 -16 -33 40 -19 28 43 20 -29 -37 -44 -55 -64 0
12 13 22 23 31 -16 25 40 36 -43 -54 -20 -29 -37 -44 55 -64 0
12 13 22 23 31 -16 25 -19 -28 36 -43 -54 -21 30 -38 56 0
12 13 22 -14 23 -16 25 -33 40 -19 -28 36 -43 30 38 -65 0
12 22 -14 23 31 -16 25 -19 28 -36 -43 -54 -21 -30 38 -45 56 0
12 13 22 31 -16 25 -33 40 -19 -28 36 -43 -21 38 -45 -56 -65 0
12 13 22 23 31 -16 25 -20 -29 37 -44 -55 -21 30 -38 56 0
12 13 22 31 -16 25 -20 -29 37 -44 -55 -30 -38 -45 56 -66 0
12 13 22 23 31 17 -26 -34 -41 -18 -27 42 -57 -19 36 43 -58 0
12 13 22 23 31 17 -26 -34 -41 -18 -27 42 -57 -20 37 44 -59 0
12 13 22 23 31 17 -26 -34 -41 -19 -28 43 -58 -20 37 44 -59 0
13 22 -14 23 31 17 -26 -34 -19 28 -36 -43 -58 30 -60 -65 0
12 13 -14 23 31 17 -34 -41 19 28 -43 -58 21 -30 -38 -60 -65 0
12 13 22 23 31 17 -41 20 29 44 59 21 38 -45 60 0
13 22 -14 23 31 -18 27 -35 -42 -19 -28 36 -43 -20 37 62 -64 0
12 13 22 -14 31 27 -19 28 -36 -43 -61 -30 -38 45 -63 -65 0
12 22 -14 23 31 36 -20 -29 37 -44 -64 21 -30 -38 -65 -66 0
12 13 22 15 -16 -33 -46 17 -26 47 52 18 -27 -35 -53 57 0
12 15 32 -16 25 -33 -46 17 -26 47 -18 -27 -35 48 -53 -57 0
12 13 22 32 -16 -33 -46 17 -26 52 -18 -27 35 -48 -53 -57 0
12 13 22 15 -16 -33 -46 17 -26 47 52 19 -28 -36 -54 58 0
12 13 22 15 -16 25 -33 -46 17 -26 47 19 28 -49 -54 -58 0
12 15 32 -16 25 -33 -46 17 -26 47 -19 -28 -36 49 -54 -58 0
12 13 22 32 -16 -33 -46 17 -26 52 -19 -28 36 -49 -54 -58 0
12 13 22 15 -16 -33 -46 17 -26 47 52 20 -29 -37 -55 59 0
12 13 22 15 -16 25 -33 -46 17 -26 47 20 29 -50 -55 -59 0
12 15 32 -16 25 -33 -46 17 -26 47 -20 -29 -37 50 -55 -59 0
12 13 22 32 -16 -33 -46 17 -26 52 -20 -29 37 -50 -55 -59 0
12 13 22 15 32 25 -33 -34 47 52 21 30 51 56 60 0
12 13 22 15 -16 -33 -46 17 -26 47 52 21 -30 -38 -56 60 0
12 13 22 15 -16 25 -33 -46 17 -26 47 21 30 -51 -56 -60 0
12 15 32 -16 25 -33 -46 17 -26 47 -21 -30 -38 51 -56 -60 0
12 13 22 32 -16 -33 -46 17 -26 52 -21 -30 38 -51 -56 -60 0
13 22 15 -24 32 -16 25 -33 18 -27 -35 -48 -53 19 -54 -61 0
12 13 22 32 -16 25 -18 -27 35 -48 -53 -29 -37 -50 55 -62 0
12 13 22 15 32 -16 25 -33 -46 -18 -27 48 -53 -30 38 51 -56 0
13 22 15 -24 32 -16 25 -33 19 -54 20 -29 -37 -50 -55 -64 0
12 13 22 15 32 -16 25 -33 -46 -19 -28 49 -54 -29 37 50 -55 0
12 13 22 15 32 -16 25 -33 -46 -19 -28 49 -54 -30 38 51 -56 0
12 15 -24 -16 25 -33 -20 -29 -37 -50 -55 21 38 51 -56 66 0
12 13 15 -24 32 17 -26 18 -27 -35 -48 -57 -19 -28 36 -49 58 0
12 13 22 15 32 17 -26 -18 -27 35 -48 -57 20 -29 -37 59 0
12 13 22 15 -24 17 -26 -34 47 18 35 -21 -30 38 -51 -63 0
12 13 22 15 32 17 -26 -19 -28 36 -49 -58 20 -29 -37 59 0
12 13 22 15 32 17 47 28 36 49 -58 21 30 60 -65 0
12 13 22 15 32 17 -26 -19 -28 36 -49 -58 21 -30 -38 60 0
12 13 22 15 -24 17 -26 -34 47 -19 -28 36 -49 21 38 -65 0
12 13 22 15 17 -26 47 19 -28 -36 58 -21 -38 -51 60 -65 0
12 13 15 -24 32 17 -26 19 -28 -36 -49 -58 -21 -30 38 -51 60 0
12 13 22 15 32 -26 -34 47 -19 28 -36 -49 -58 21 -30 51 -65 0
12 13 22 15 32 17 -26 47 -19 28 -36 -49 -58 -30 -38 51 -65 0
12 13 22 15 32 17 47 20 29 59 30 38 51 -60 -66 0
12 13 22 15 17 -26 47 -20 -37 -50 59 21 -30 -38 60 -66 0
12 13 22 15 17 -26 47 20 -29 -37 59 -21 -38 -51 60 -66 0
12 13 15 32 17 -26 -34 20 -29 -37 -50 -59 -21 30 -38 51 -60 0
12 13 15 32 -18 -27 -48 -36 49 61 20 -29 -37 -50 -62 -64 0
12 13 22 -24 32 18 -19 -36 49 -61 21 -30 -38 -51 -63 -65 0
12 13 22 -24 32 19 20 -29 -37 -50 -64 -21 -38 51 -65 -66 0
13 22 15 -24 32 19 -20 29 -37 -64 21 -30 -38 -51 -65 -66 0
12 13 22 -16 -33 17 -26 52 35 -53 -19 -28 36 -54 -58 -61 0
12 13 22 -16 -33 17 -26 52 35 -53 -21 -30 38 -56 -60 -63 0
12 13 22 -16 25 -26 -34 52 35 -57 -21 -30 38 -56 -60 -63 0
12 13 22 -16 25 -26 -34 52 36 -58 -20 -29 37 -55 -59 -64 0
12 13 22 -16 -33 17 -26 52 37 -55 -21 -30 38 -56 -60 -66 0
12 13 22 -16 25 -33 18 -35 -53 19 28 -54 20 -29 -37 62 0
12 13 22 -16 25 -33 27 28 -36 54 61 -20 -29 -55 -62 64 0
12 13 22 -16 25 -33 27 -19 -28 -54 -61 29 -37 55 62 64 0
12 13 22 -16 25 -33 27 -19 -28 -54 -61 30 -38 56 63 65 0
12 13 22 -16 25 -33 27 -53 -29 -37 -55 -62 -21 38 -56 66 0
12 13 22 -16 25 -33 -27 -35 -53 -20 29 55 62 30 -63 66 0
12 13 22 -16 25 -33 19 28 20 -29 -37 -64 30 -38 56 -66 0
12 13 22 -16 25 -33 19 28 29 -37 55 21 -30 -38 -65 -66 0
12 22 -16 25 -33 -19 28 -36 -54 29 37 -55 21 -30 -38 -65 66 0
12 13 22 -16 25 -19 28 -36 -54 -20 -29 37 -55 30 -56 -65 66 0
12 13 22 17 -26 -34 18 -57 -19 -36 -58 -61 -29 37 -59 64 0
12 13 22 17 -26 18 57 -19 -36 58 -61 20 -29 -37 59 -64 0
12 13 22 17 -26 -34 -18 -35 -57 -28 36 -58 61 21 -60 -63 0
12 13 22 17 -26 -34 18 -19 -36 -58 -61 21 -30 60 63 65 0
12 13 22 17 -26 -34 -18 -35 -57 20 -29 59 62 21 -63 66 0
12 13 22 17 -26 -34 19 28 20 -37 59 -21 30 -38 -65 -66 0
12 -14 23 15 -24 25 40 -46 -48 53 -19 -28 -43 -49 54 -61 0
12 -14 23 15 -24 25 40 -46 -48 53 -20 -29 -44 -50 55 -62 0
12 23 -39 -16 25 40 -46 18 27 42 48 -21 -30 -45 -51 56 -63 0
-14 23 15 -24 25 -46 19 28 43 -49 -20 29 -44 -50 -55 -64 0
12 -14 23 15 -24 25 40 -46 -49 54 -20 -29 -44 -50 55 -64 0
12 -14 23 15 -24 25 40 -46 -19 -28 -43 -49 54 -51 56 -65 0
12 -14 23 15 -24 25 40 -46 -50 55 -21 -30 -45 -51 56 -66 0
23 15 -24 -39 -16 25 20 29 -50 55 -21 30 -45 -51 -56 -66 0
12 -14 23 15 -24 -39 25 40 -46 20 29 -50 55 -21 -51 56 -66 0
12 -14 23 15 -24 17 -41 47 -19 -28 -43 -49 58 -45 60 -65 0
12 -14 23 15 -24 -39 17 -41 47 -28 -43 58 21 30 -45 60 -65 0
-14 -24 -39 18 -27 -42 -48 -19 -28 61 -20 -29 -44 -50 -64 0
12 -14 -24 -39 -19 -43 -49 -20 -29 -44 -50 21 -30 -51 -65 0
-14 -24 -39 -19 -28 -20 29 -44 -50 64 -21 -30 -45 -51 -65 0
-14 -24 -39 -19 -28 20 -29 -44 -50 64 -21 -30 -45 -51 -65 0
-14 -24 -39 -19 28 -43 -49 -20 -29 64 -21 -30 -45 -51 -66 0
-14 -24 -39 -19 -28 -43 -49 -20 29 -44 -50 -21 -30 -65 66 0
-14 -24 -39 -19 -28 -43 -49 20 -29 -44 -50 -21 -30 -65 66 0
12 -14 23 -16 25 40 -26 -41 52 -18 27 53 -19 -43 54 58 0
-14 23 -16 25 40 17 -26 52 -18 53 57 -19 -28 -43 54 58 0
12 23 -16 25 40 17 -26 -41 42 -57 -19 -28 43 -54 -58 -61 0
12 -14 -16 25 40 -26 -41 52 -18 -27 -42 53 -57 19 43 54 -58 0
12 -14 23 -16 25 40 -26 -41 52 -18 -42 53 -57 19 54 -58 -61 0
12 -14 23 -16 25 40 -26 -41 52 -18 27 53 -20 -44 55 59 0
-14 23 -16 25 40 17 -26 52 -18 53 57 -20 -29 -44 55 59 0
-14 23 -16 25 40 17 -26 52 -18 42 -21 -30 45 -56 -60 -63 0
12 23 -16 25 40 17 -26 -41 42 -57 -21 -30 45 -56 -60 -63 0
12 -14 23 -16 25 40 -26 -41 52 -18 27 57 -21 30 -45 -60 -63 0
-14 23 -16 25 40 17 -26 52 -19 -28 43 -54 -58 -20 44 -64 0
12 23 -16 25 40 17 -26 -41 43 -58 -20 -29 44 -55 -59 -64 0
12 -14 23 -16 25 -26 -41 52 -19 28 -43 58 -20 29 -44 55 -59 0
12 -14 23 25 17 -26 -41 52 28 -43 54 -58 -20 29 -44 -55 -64 0
-14 23 -16 25 40 17 -26 52 -19 -28 -43 54 58 -21 56 60 0
12 23 -16 25 40 17 -26 -41 43 -58 -21 -30 45 -56 -60 -65 0
12 -14 23 -16 25 40 -26 -41 52 -19 28 -43 -58 -21 30 60 -65 0
12 -14 23 -16 25 40 -26 -41 52 -19 28 58 -21 30 -45 -60 -65 0
12 -14 23 25 17 -26 -41 52 -19 28 -43 -54 30 -45 56 -60 -65 0
12 -14 -16 25 -26 52 -20 -29 -44 -55 -59 -21 45 56 60 66 0
-14 23 -16 25 40 17 -26 52 -20 44 -21 -30 45 -56 -60 -66 0
12 -14 23 -16 25 40 -18 27 -19 -28 -54 -61 -20 -44 55 64 0
12 -14 -16 25 40 -18 27 53 -28 43 54 -21 30 -45 56 -65 0
12 -14 23 -16 25 40 -19 -28 -43 -20 44 -55 64 -21 30 -65 0
12 -14 23 -16 25 -19 54 -20 -29 -44 -55 64 -21 30 56 -65 0
12 -14 23 -16 25 -19 28 -43 -54 -20 -29 44 -55 30 56 -65 66 0
12 -24 -16 -46 17 -26 47 52 27 48 -53 57 -19 -28 -49 -54 58 0
12 15 -24 -16 -46 17 -26 47 52 18 -27 -48 -53 19 -28 54 -61 0
12 15 -24 -16 -46 17 -26 47 52 18 -27 -48 -53 20 -29 55 -62 0
12 15 -16 25 -46 17 -26 47 48 -53 -21 -30 51 -56 -60 -63 0
15 -24 -16 25 17 -26 47 52 -19 -28 -49 54 58 -29 55 59 0
12 15 -16 25 -46 17 -26 47 49 -54 -20 -29 50 -55 -59 -64 0
12 15 -24 -16 -46 17 -26 52 19 -28 -49 -54 58 20 -29 -50 55 0
12 15 -24 -16 -46 17 -26 47 52 19 -28 -49 -54 20 -29 55 -64 0
15 -24 -16 25 17 -26 47 52 -19 -28 -49 54 58 -30 56 60 0
12 15 -24 -16 -46 17 -26 47 52 19 -28 58 -30 -51 56 60 0
15 -24 -16 25 17 -26 47 52 -19 -28 49 -54 -58 -30 51 -65 0
12 15 -16 25 -46 17 -26 47 -19 -28 49 -54 -58 51 -56 -65 0
15 -24 -16 25 17 -26 47 52 -28 49 -21 -30 51 -56 -60 -65 0
12 15 -16 25 -46 17 -26 47 49 -54 -21 -30 51 -56 -60 -65 0
15 -24 -16 25 17 -26 47 52 -29 50 -21 -30 51 -56 -60 -66 0
12 15 -24 -16 -46 17 -26 47 52 20 -29 55 21 -30 -51 -56 -66 0
12 15 -24 25 -46 -18 -27 -48 53 -50 55 -62 -21 30 56 -63 0
12 -24 17 -26 47 18 -27 57 -19 49 58 20 -29 -50 59 -64 0
12 15 -24 17 -26 47 18 -27 -20 -29 -50 -62 -30 51 -60 66 0
12 15 17 -26 47 18 27 -48 -57 20 50 -21 -30 51 -60 -66 0
12 15 17 -26 47 -18 27 -48 50 -62 -21 -30 51 -60 -63 -66 0
12 15 -24 17 -26 19 -28 -49 -58 -20 -29 50 -59 21 60 -65 66 0
12 -16 17 -26 52 -27 -19 -28 -54 -58 -61 -29 55 59 62 64 0
12 -16 25 -26 52 -18 -19 54 58 61 -20 -29 -55 -59 -62 64 0
12 -16 25 -26 52 -18 -19 -28 -54 -58 -61 -21 56 60 63 65 0
12 -16 17 -26 52 -27 -19 -28 -54 -58 -61 -30 56 60 63 65 0
12 -16 25 -26 52 -19 -20 55 59 64 -21 -30 -56 -60 -65 66 0
12 25 -26 52 -19 -54 -58 20 -29 55 59 64 -21 -30 -60 -65 66 0
13 31 15 32 -39 40 -46 17 47 52 18 35 42 53 57 0
13 31 15 32 -39 40 -46 17 47 52 19 36 43 54 58 0
13 31 15 32 -39 40 -46 17 47 52 20 37 44 55 59 0
13 31 15 32 -39 40 -46 17 47 52 21 38 45 56 60 0
13 -14 31 15 32 -33 40 -46 49 -54 -20 -37 -44 50 -55 -64 0
13 -14 32 -39 -16 -33 40 -46 36 43 49 -54 -20 37 44 -55 64 0
13 31 15 32 -39 -16 -46 -19 -36 -43 49 -54 20 37 44 55 -64 0
13 31 15 32 -39 17 -41 47 18 35 42 19 43 58 61 0
13 -14 15 32 -39 17 -41 18 -35 -42 -48 19 -36 43 58 61 0
13 -14 31 15 32 -39 17 -41 47 -18 -35 -42 57 -36 -43 49 58 0
13 -14 31 15 32 -39 17 -41 47 -18 -35 -42 57 -37 -44 50 59 0
13 31 15 32 -39 17 -41 47 19 43 58 20 37 44 64 0
13 -14 31 15 32 17 -41 47 43 49 58 37 44 50 64 0
13 31 15 32 -39 17 -41 47 19 36 43 20 44 59 64 0
-14 31 15 32 -39 17 -34 47 -19 36 -43 49 -58 37 -44 50 0
13 -14 15 32 -39 17 -41 19 -36 43 58 20 -37 -44 -50 64 0
13 -14 31 15 32 -39 -41 47 -36 49 58 37 -44 50 -59 -64 0
13 -14 31 15 32 -39 17 -41 47 -19 -36 -43 58 -37 -44 50 59 0
13 -14 31 15 32 17 -41 47 -19 -36 -43 -49 58 37 50 -59 -64 0
13 -14 31 15 32 17 -41 47 36 49 -58 -20 -37 -44 -50 59 -64 0
13 31 15 32 -39 17 -41 47 19 36 43 21 45 60 65 0
13 -14 15 32 -39 17 -41 19 -36 -43 -49 21 -38 45 60 65 0
13 -14 31 -39 17 -41 47 19 -36 58 -21 -38 -45 -51 60 -65 0
13 -14 31 15 32 -39 17 -41 47 -19 -36 -43 58 -38 -45 51 60 0
13 -14 31 15 32 17 -41 47 -19 -36 -43 -49 58 38 51 -60 -65 0
13 -14 31 15 32 17 -41 47 36 49 -58 -21 -38 -45 -51 60 -65 0
-14 31 15 32 -39 17 -34 47 20 -37 -44 -50 -59 21 -45 -66 0
13 -14 15 32 -39 -41 47 -20 -37 -44 50 -59 21 -38 45 -66 0
13 -14 15 32 -39 -41 47 20 -37 44 -21 -38 -45 51 -60 -66 0
-14 31 32 -39 17 -41 47 -37 50 59 -21 -38 -45 -51 60 -66 0
13 -14 31 15 32 17 -41 47 -20 -37 -44 -50 59 38 51 -60 -66 0
13 -14 31 32 17 -34 -41 47 -20 37 -44 -50 38 -45 51 -60 -66 0
13 -14 31 15 32 17 -41 47 37 50 -59 -21 -38 -45 -51 60 -66 0
13 -14 31 32 -39 18 -35 -42 -48 36 49 61 -20 37 -44 -50 -64 0
13 -14 31 15 32 -39 35 -36 -43 -49 -61 -21 38 45 63 65 0
13 -14 31 15 32 48 -19 -36 -43 49 -61 -38 45 -51 -63 -65 0
13 -14 31 15 32 48 -20 -37 -44 50 -62 -38 45 -51 -63 -66 0
13 -14 31 15 32 48 -37 44 -50 -62 -21 -38 -45 51 -63 -66 0
13 -14 31 15 32 -39 -36 -43 -49 -20 37 44 64 38 -65 66 0
13 -14 31 15 32 -39 -19 -36 -43 37 44 -50 64 38 -65 66 0
13 -14 -16 -33 17 -34 -41 -35 -42 -53 -57 -19 -43 -54 -61 0
-14 31 -33 40 17 -34 -18 -35 42 -57 19 -36 43 54 58 61 0
13 31 -33 40 17 -34 52 18 35 42 20 44 55 59 62 0
13 -14 -16 40 -34 52 -18 -35 -42 53 -57 -20 37 55 59 -62 0
13 -14 -33 40 17 -34 18 -35 -42 -53 20 -37 44 55 59 62 0
-14 -16 -33 -34 -41 -19 -36 -43 -54 -58 -20 37 -44 55 -59 0
13 -14 -16 -33 17 -34 -41 -19 -43 -54 -37 -44 -55 -59 -64 0
13 -14 -33 40 -34 52 -19 -36 -43 54 -58 20 -37 44 55 -64 0
13 -14 31 -33 -41 52 36 -43 -54 -58 21 38 -45 56 60 65 0
-14 -16 -33 -34 -41 -20 -37 -44 -55 -59 -21 -38 45 -56 60 0
13 31 -33 40 17 -34 52 20 37 44 21 45 56 60 66 0
-14 31 -33 17 -34 52 -20 -37 -44 -55 59 21 -38 45 60 -66 0
13 -14 31 -16 40 -18 53 -19 -36 -43 54 -61 -37 44 55 -64 0
13 -14 31 -16 40 -18 53 -36 43 54 -20 -37 -44 55 -62 -64 0
-14 -16 -33 -35 -42 -19 -36 -43 -54 -61 -21 38 -45 56 -63 0
13 -14 -33 40 -35 53 -19 -36 -43 54 -61 21 -38 45 56 -65 0
13 -14 31 -33 40 -19 -36 -43 -54 20 37 -55 64 -56 -65 66 0
13 -14 31 17 -34 -18 -35 -42 -57 37 44 -59 62 -60 -63 66 0
13 -14 31 17 -34 -19 -36 -43 -58 37 44 -59 64 -60 -65 66 0
13 15 32 -33 -46 17 47 52 18 35 53 19 54 58 61 0
13 15 32 -16 -46 -34 47 52 -18 -35 48 -53 57 49 -54 58 0
13 15 32 -16 -33 -46 17 47 52 -18 35 -53 -57 36 49 -54 -58 0
13 15 32 -16 -33 -46 17 47 52 -18 35 -53 -57 37 50 -55 -59 0
13 15 32 -33 -46 17 47 52 18 35 53 21 56 60 63 0
13 15 32 -33 17 47 52 36 49 54 58 20 -37 55 59 0
13 15 32 -16 -33 17 47 52 36 49 54 50 55 59 64 0
13 15 32 -33 -46 17 47 52 19 36 54 21 56 60 65 0
15 32 -16 -33 -46 17 47 52 -36 49 -54 58 38 51 -60 -65 0
13 15 32 -33 17 47 52 37 50 55 59 21 -38 56 60 0
13 15 32 -33 17 47 52 20 37 55 59 -38 51 56 60 0
13 15 32 -16 -46 -34 47 52 20 -55 21 -38 -51 -56 -60 -66 0
13 15 32 -16 -33 -46 18 35 -53 36 -54 -61 20 -50 55 62 -64 0
13 15 17 -34 47 18 48 -36 49 58 -61 -20 -37 -50 -59 -62 64 0
13 15 32 17 47 36 49 -58 20 37 64 21 60 -65 66 0
13 -16 17 -34 52 -35 -19 -36 -54 -58 -61 -38 56 60 63 65 0
13 -16 17 -34 52 -18 -35 -53 -57 -37 55 59 62 -38 -63 66 0
-16 -33 -18 -35 -19 -36 -54 -61 -20 37 -55 -21 38 -63 -66 0
-16 -33 -35 -53 -19 -54 -61 -20 -37 -55 -21 38 -63 -65 66 0
-14 15 40 -46 17 -41 47 52 18 -42 -48 -53 -57 19 -43 -61 0
15 -39 -16 40 17 -41 47 52 -42 53 57 -20 -44 -50 55 59 0
-14 15 -39 -46 17 47 52 -18 -42 48 -53 -57 20 44 55 59 -62 0
15 -39 -16 40 17 -41 47 52 -19 -43 49 -54 -58 -44 50 -64 0
-14 15 -39 40 -46 17 -41 47 52 19 -43 -54 20 -44 55 59 -64 0
-14 15 -39 -46 17 47 52 -19 -43 49 -54 -58 20 44 55 59 -64 0
-14 15 -39 -46 17 47 52 19 43 54 58 -20 -44 50 -55 -59 -64 0
15 -39 40 -46 17 47 52 19 43 49 21 45 56 60 65 0
15 -39 -16 40 17 -41 47 52 -19 -43 -49 54 58 -45 56 60 0
-14 15 40 -46 17 -41 47 52 19 -43 -49 -54 -58 21 -45 -65 0
-14 15 -39 40 -46 17 -41 47 52 19 -43 54 58 21 -45 -56 -65 0
-14 15 -39 -46 17 47 52 -19 -43 49 -54 -58 21 45 56 60 -65 0
-14 15 -39 -46 17 47 52 19 43 54 58 -21 -45 51 -56 -60 -65 0
-14 15 -39 40 17 47 52 44 50 55 59 21 45 56 60 0
-14 15 -39 -46 17 47 52 -20 -44 50 -55 -59 21 45 56 60 -66 0
-14 15 -39 -46 17 47 52 20 44 55 59 -21 -45 51 -56 -60 -66 0
-14 15 17 -41 47 18 42 48 -20 -44 -50 59 -62 51 -60 63 -66 0
-14 15 -39 17 -41 47 -19 -43 49 20 44 59 -64 -45 51 60 -66 0
-14 15 17 -41 47 19 43 49 50 -59 64 -21 -45 -51 60 -65 -66 0
-14 -16 -41 52 -18 -42 -53 57 -19 -54 -58 -20 -44 -59 -64 0
-16 17 52 -18 -42 -53 -57 19 -43 -58 -61 44 55 59 62 -64 0
-14 -16 -41 -19 -43 -54 -58 -20 -44 -55 59 -56 -60 -65 66 0
-14 -16 40 -41 52 -19 -43 54 58 20 44 55 -59 -21 56 66 0
15 17 47 52 -18 48 53 49 54 58 61 20 55 59 -62 0
15 17 47 52 -18 48 53 19 54 58 -61 50 55 59 62 0
15 -16 -46 17 47 52 57 -49 -54 -58 -61 -21 56 60 63 65 0
15 -16 -46 17 47 52 -18 -53 -57 -50 55 59 62 60 -63 66 0
15 -16 -46 17 47 52 -18 53 57 50 59 -21 51 -60 -63 -66 0
15 -16 17 47 52 -48 53 -57 50 -62 -21 51 -56 -60 -63 -66 0
15 -16 -46 17 47 52 -19 -54 -58 20 -50 -55 64 -56 60 -65 0
15 -16 -46 17 47 52 -49 -54 -58 -20 50 -55 64 -56 60 -65 0
15 -16 -46 17 47 52 -19 -54 -58 -50 55 59 64 60 -65 66 0
22 23 31 32 -39 25 40 -41 47 52 28 36 49 54 58 0
22 23 31 32 -39 25 40 -41 47 52 29 37 50 55 59 0
22 23 31 32 -39 25 40 -41 47 52 30 38 51 56 60 0
22 23 31 32 -39 25 40 -46 27 35 48 28 49 54 61 0
22 23 31 -24 32 -39 25 40 -46 -27 -35 -48 53 -36 43 -49 54 0
22 23 31 32 -39 25 40 -46 27 35 48 29 50 55 62 0
22 23 31 -24 32 -39 25 40 -46 -27 -35 -48 53 -37 44 -50 55 0
22 23 31 32 -39 25 40 -46 28 49 54 29 37 50 64 0
22 23 31 -24 32 25 40 -46 43 49 54 37 44 50 64 0
22 31 -24 32 -39 40 -46 -28 -36 -43 -49 54 37 44 -50 -55 0
23 31 -24 32 -39 25 -33 40 36 43 -49 -29 37 44 -50 -55 0
22 23 31 -24 32 -39 25 40 -46 -28 -36 -49 54 -37 44 -50 55 0
22 23 31 -24 32 25 40 -46 -28 -36 -43 -49 54 37 44 -55 -64 0
22 23 31 -24 32 25 40 -46 36 43 -54 -29 -37 -44 -50 55 -64 0
22 23 31 -24 32 25 40 -46 43 49 54 38 45 51 65 0
22 -24 32 -39 25 40 -46 -28 -36 -43 -49 54 30 -38 56 -65 0
22 23 31 -24 32 -39 25 40 -46 -28 -36 -49 54 -38 45 -51 56 0
22 23 31 -24 32 25 40 -46 -28 -36 -43 -49 54 38 45 -56 -65 0
22 23 31 -24 32 25 40 -46 36 43 -54 -30 -38 -45 -51 56 -65 0
22 23 31 -24 32 25 40 -46 37 44 50 45 51 56 66 0
23 31 -24 32 -39 25 -33 40 29 -37 -44 -50 -55 30 -51 -66 0
23 31 -24 32 -39 25 -33 40 29 -50 30 -38 -45 -51 -56 -66 0
31 -24 32 -39 25 40 -46 -37 44 55 -30 -38 -45 -51 56 -66 0
22 23 31 -24 32 25 40 -46 -29 -37 -44 -50 55 38 45 -56 -66 0
22 23 31 -24 32 25 40 -46 37 44 -55 -30 -38 -45 -51 56 -66 0
22 31 -24 -39 -26 -34 -41 47 36 43 49 -58 -29 37 50 -59 64 0
22 23 31 32 -39 -26 -41 -28 -36 43 -49 -58 29 37 50 59 -64 0
22 31 -24 -39 -26 -34 -41 47 37 44 50 -59 -30 38 51 -60 66 0
22 23 31 32 -39 -26 -41 29 37 50 59 -30 -38 45 -51 -60 -66 0
22 23 31 -24 32 -39 35 -28 36 49 61 -37 -44 -50 -62 64 0
22 23 31 -24 32 42 -28 -36 43 -49 -61 -38 -45 51 -63 -65 0
22 23 31 -24 32 42 -36 -43 49 -61 -30 -38 45 -51 -63 -65 0
22 23 31 -24 32 42 -37 -44 50 -62 -30 -38 45 -51 -63 -66 0
22 31 32 -39 28 36 49 -29 -37 -44 -50 64 38 45 -51 -65 0
22 23 31 -24 32 -39 36 37 -44 50 64 -30 -38 -51 -65 66 0
22 23 31 -24 32 43 -29 -37 44 -50 -64 -38 -45 51 -65 -66 0
22 23 31 -24 32 43 -37 -44 50 -64 -30 -38 45 -51 -65 -66 0
22 31 -24 32 -39 28 -36 -43 -49 -29 37 -44 -50 38 45 65 -66 0
22 31 -24 32 -39 -28 36 -43 -49 37 44 -50 30 -38 -45 -65 66 0
22 31 32 -39 -28 -36 -43 -49 -29 44 -50 64 30 38 45 -65 66 0
31 -24 -39 28 36 -43 -49 -29 -37 -44 -50 30 38 45 51 -65 66 0
22 23 31 -33 40 -26 -41 52 42 53 -57 -28 -36 43 54 -58 0
22 23 31 25 40 -26 52 35 42 53 57 -29 37 59 62 0
22 23 31 25 40 -26 -34 -41 52 -27 35 -53 -57 37 44 -55 -59 0
22 23 31 25 40 -26 -34 -41 52 36 43 -54 -58 -29 37 -55 -59 0
22 23 31 25 40 -26 -34 -41 52 -28 36 -54 -58 37 44 -55 -59 0
22 23 31 25 40 -34 52 -36 43 54 58 30 38 56 60 0
22 23 31 25 40 -26 -34 52 36 43 58 45 56 60 65 0
22 23 31 25 40 -26 -34 -41 52 36 43 -54 -58 -30 38 -56 -60 0
22 23 25 40 -34 -41 52 28 -36 54 58 -30 -38 -45 -56 60 -65 0
22 23 31 25 40 -34 52 29 37 55 59 -38 45 56 60 0
31 25 40 -26 -34 -41 52 -37 44 55 -59 -30 38 -45 -56 -60 0
22 25 -33 -26 -41 52 -29 -37 -44 -55 -59 30 38 45 -60 66 0
23 31 25 40 -26 -34 -41 52 37 44 -55 -38 45 56 -60 -66 0
22 23 31 25 40 28 -36 54 44 55 64 38 45 -65 66 0
23 31 25 -33 40 28 -36 -43 -54 -29 37 44 -55 30 45 -65 0
22 23 31 40 -36 -43 -54 -29 44 55 64 -30 -38 45 -65 66 0
22 23 31 25 40 28 -36 -43 -54 -29 44 -55 45 -56 -65 66 0
22 -24 25 -33 -34 47 27 -35 -48 -57 29 -37 50 55 59 62 0
-24 -33 -46 -26 -34 28 -36 49 -54 -58 -29 -37 -50 -55 -59 0
-24 25 -33 -46 -26 -34 52 -36 -49 -54 -29 -37 -50 -59 -64 0
22 32 25 -33 -34 47 52 28 36 49 29 50 55 59 64 0
22 -24 32 -46 -34 52 28 36 -49 54 58 37 -50 -55 -59 64 0
22 32 25 -33 -34 47 52 28 36 49 30 51 56 60 65 0
-24 32 25 -33 -34 47 -28 -36 49 -54 30 -38 51 56 60 65 0
-24 -33 -46 -26 -34 -29 -37 -50 -55 -59 30 -38 51 -56 -60 0
22 32 25 -33 -34 47 52 29 37 50 30 51 56 60 66 0
22 -24 32 25 -46 -48 53 -28 -36 -49 54 -61 29 -37 55 -64 0
22 -24 32 25 -33 -53 36 49 -54 61 -29 -37 -50 -55 -62 64 0
22 -24 32 25 -46 -48 53 -28 -36 -49 54 -61 30 -38 56 -65 0
22 -24 32 25 -33 -53 -28 -36 -49 -54 -61 38 51 -56 63 65 0
22 -24 32 25 -33 -27 -35 -48 -53 37 50 -55 62 -56 -63 66 0
22 -24 -33 -46 -36 -49 -54 -29 37 -50 -55 -30 -38 -51 -65 0
22 -24 32 25 -46 -49 54 -29 -37 -50 55 -64 30 -38 56 -66 0
-24 -26 -34 -27 35 -48 -57 -36 -49 61 -29 -37 -50 -59 -64 0
22 -24 -34 47 -35 57 28 -36 49 58 -29 -37 -50 59 -62 -64 0
-24 -26 -34 -35 -48 -28 -36 -49 -58 -61 -30 38 -51 60 -63 0
-24 32 -26 -34 47 -27 35 -28 -36 -58 -61 30 -38 51 60 63 65 0
-24 32 -26 -34 47 -27 -35 -57 29 -37 50 59 62 -30 38 -63 66 0
-24 32 -26 -34 47 -27 35 -29 -37 -59 -62 30 -38 51 60 63 66 0
-24 32 -26 -34 -28 36 -49 -29 -37 -50 -59 -30 -38 -60 -65 0
22 -24 32 -27 35 -28 36 -49 -61 -29 -37 -50 62 38 51 -65 66 0
25 -33 -26 -34 -36 -54 -58 -29 -37 -55 -59 -30 56 -60 -65 0
-26 -34 -27 -35 -28 36 -58 -29 -37 -59 -62 -30 38 -63 -65 0
23 -24 25 40 -46 -41 47 52 -48 53 57 -28 -43 -49 54 58 0
-39 25 -46 -26 47 52 -27 -42 -48 -53 -57 28 43 -49 54 61 0
23 -39 25 40 -46 -26 47 52 -48 53 57 -29 -44 -50 55 59 0
23 -24 -39 25 40 -46 -41 47 52 27 -48 53 57 30 -51 -60 -63 0
23 -24 -39 25 40 -41 52 27 48 53 57 -30 45 -51 -56 -60 -63 0
23 -24 -39 25 40 -46 -41 47 52 28 -49 -58 29 -50 55 59 -64 0
23 -24 -39 25 40 -41 52 -28 43 -49 -54 -58 29 50 55 59 -64 0
23 -24 -39 25 40 -41 52 28 49 54 58 -29 44 -50 -55 -59 -64 0
23 -39 25 40 -46 -26 47 52 -28 -43 -49 54 58 -51 56 60 0
23 -24 -39 25 40 -46 -41 47 52 28 -49 54 58 30 -51 -60 -65 0
23 -24 -39 25 40 -41 52 -28 43 -49 -54 -58 30 51 56 60 -65 0
23 -24 -39 25 40 -41 52 28 49 54 58 -30 45 -51 -56 -60 -65 0
23 40 -46 -26 -41 47 44 50 55 -59 -30 45 -51 -56 -60 -66 0
23 -24 -39 25 40 -46 -26 47 52 44 -50 55 59 45 -51 -60 -66 0
23 -24 -39 25 40 -46 -41 47 52 29 -50 -59 30 -51 56 60 -66 0
23 -24 -39 25 40 -41 52 -29 44 -50 -55 -59 30 51 56 60 -66 0
23 -24 -39 25 40 -46 -26 47 52 44 -50 -59 45 -51 56 60 -66 0
23 -24 -39 25 40 -41 52 29 50 55 59 -30 45 -51 -56 -60 -66 0
23 -24 -39 25 40 -46 -28 43 -49 44 -50 55 30 51 56 -65 -66 0
23 -24 25 40 -46 28 43 49 44 -55 64 -30 -45 -51 56 -65 -66 0
23 -24 -26 -41 47 -27 42 -57 -28 43 -49 -29 44 50 -59 64 0
-24 -39 -41 -27 -57 -29 -44 -50 -59 -62 -30 45 -51 60 -63 0
-24 -39 -26 -41 -43 -49 58 -29 -44 -50 -59 -30 -51 60 -65 0
-24 -39 -42 -28 -43 -49 61 -29 -62 64 -30 -45 -51 -63 -66 0
23 25 40 52 27 42 -57 28 54 58 61 44 55 59 -62 0
23 25 40 -26 -41 52 53 -43 -54 -58 -61 -29 55 59 62 64 0
23 25 40 -26 -41 52 53 -43 54 58 61 -29 -55 -59 -62 64 0
23 25 40 -26 -41 52 53 -28 54 58 61 -44 -55 -59 -62 64 0
23 25 40 -26 52 42 53 -28 43 -54 -58 -61 -30 -45 56 60 0
23 25 40 -26 52 42 53 -29 44 -55 -59 -62 -30 -45 56 60 0
23 25 40 -26 52 42 53 -29 -44 55 59 -30 45 -56 -60 -63 0
23 25 40 -26 -41 52 53 -29 -55 -59 -62 -45 56 60 63 66 0
25 40 -41 52 28 54 58 -29 -44 -55 -59 64 45 56 -60 -65 0
23 25 40 -26 -41 52 43 54 -29 44 -55 -64 -30 56 60 -66 0
23 25 40 -26 -41 52 -43 -54 -58 -29 55 59 64 56 -65 66 0
23 25 40 52 -28 -54 -58 -44 55 59 64 -30 -45 56 -65 66 0
23 25 40 -26 -41 52 -43 54 58 55 64 -30 -56 -60 65 -66 0
-24 25 -26 47 52 -27 53 -28 -49 54 58 -29 50 -55 -59 -62 0
-24 -26 48 28 49 58 61 -29 -50 -59 -62 64 -30 -51 60 63 -65 0
25 -27 -57 -28 -54 -58 -61 29 55 59 62 64 -30 56 60 -63 -66 0
31 32 -33 40 -34 47 52 36 43 49 44 50 55 59 64 0
31 32 40 47 52 36 43 49 54 58 -38 45 -51 56 60 0
-39 -33 -46 -35 -42 -36 -43 -49 -54 -61 -38 -45 51 56 -63 0
-39 -33 -46 -35 -42 -37 -44 -50 -55 -62 38 -45 -51 56 -63 0
31 32 -39 -46 -36 -43 -49 -54 44 -50 55 64 -38 45 -65 66 0
31 -33 40 -34 -41 52 -53 -57 43 54 -58 -61 37 44 -59 62 64 0
31 -33 40 -41 52 -36 -43 -54 -58 37 44 -59 64 -60 -65 66 0
32 -46 -34 47 52 -35 -37 -50 -55 -59 -62 -38 56 60 63 66 0
32 -46 -34 47 52 -36 -49 -54 -58 37 50 -55 64 -56 -65 66 0
-39 40 -41 52 -53 57 -43 49 58 61 -44 -50 -55 -59 -62 64 0
-39 40 47 52 43 49 58 44 55 59 64 -45 51 56 60 0
-39 40 47 52 43 49 54 44 -50 55 59 51 56 60 65 0
40 -46 -41 47 52 -43 -49 -54 -58 44 -50 55 64 -51 -65 66 0
-39 -46 -48 -53 -43 -49 -61 -44 -50 -55 45 -56 -63 -65 66 0
40 -41 52 -42 -53 -57 -43 54 58 44 55 62 -64 56 -63 66 0
-46 47 52 57 -49 -54 -58 -61 50 59 62 64 -51 56 60 -66 0
12 13 22 23 31 32 -39 -18 27 42 -48 0
12 13 22 31 15 32 -39 18 -27 -42 48 0
12 13 22 23 31 32 -39 -19 28 43 -49 0
12 13 22 31 15 32 -39 19 -28 -43 49 0
12 13 22 23 31 32 -39 -20 29 44 -50 0
12 13 22 31 15 32 -39 20 -29 -44 50 0
12 13 22 23 31 32 -39 -21 30 45 -51 0
12 13 22 31 15 32 -39 21 -30 -45 51 0
12 13 22 23 31 -16 25 18 35 -42 -53 0
12 13 22 23 31 -16 25 19 36 -43 -54 0
12 22 23 31 -16 25 40 -19 -36 43 54 0
12 13 22 23 31 -16 25 20 37 -44 -55 0
12 22 23 31 -16 25 40 -20 -37 44 55 0
12 13 22 23 31 -16 25 21 38 -45 -56 0
12 22 23 31 -16 25 40 -21 -38 45 56 0
12 -14 23 17 -26 -34 27 35 42 -57 0
13 22 -14 31 28 36 43 21 38 -45 -65 0
12 15 -24 -16 25 -33 21 38 51 -56 0
12 13 22 15 32 17 -26 27 35 -48 -57 0
12 13 15 32 17 -26 47 -27 -35 48 57 0
12 13 22 15 32 17 -26 28 36 -49 -58 0
12 13 15 32 17 -26 47 -28 -36 49 58 0
12 13 22 15 32 17 -26 29 37 -50 -59 0
12 13 15 32 17 -26 47 -29 -37 50 59 0
12 13 22 15 32 17 -26 30 38 -51 -60 0
12 13 15 32 17 -26 47 -30 -38 51 60 0
12 -16 25 -33 17 -26 18 35 -53 57 0
12 -16 25 17 -26 -34 27 35 53 -57 0
12 -16 25 -33 17 -26 19 36 -54 58 0
12 -16 25 17 -26 -34 28 36 54 -58 0
12 -16 25 -33 17 -26 20 37 -55 59 0
12 -16 25 17 -26 -34 29 37 55 -59 0
12 -16 25 -33 17 -26 21 38 -56 60 0
12 -16 25 17 -26 -34 30 38 56 -60 0
12 13 22 -16 25 -33 18 35 -53 -28 36 -54 61 0
12 13 22 -16 25 -33 19 -28 -54 20 37 -55 64 0
12 13 22 -16 25 -33 -28 36 -54 20 37 -55 64 0
12 13 22 -16 25 -33 19 36 -54 -29 37 -55 64 0
12 22 -16 25 -33 36 -54 30 38 -56 -65 0
12 13 17 -34 18 35 -57 19 28 58 -61 0
12 13 17 -26 -34 35 -57 21 38 -60 -63 0
12 13 22 17 -26 -34 -19 28 -58 29 37 -59 64 0
12 13 17 -26 -34 20 29 -59 30 -60 -66 0
12 13 17 -26 -34 20 37 -59 38 -60 -66 0
12 13 17 -26 20 29 -59 21 38 60 -66 0
12 13 22 18 19 28 61 20 37 62 0
12 13 22 18 35 28 36 61 20 -29 62 0
12 13 22 19 36 20 64 21 30 66 0
12 13 22 28 36 20 37 64 21 -30 66 0
12 -14 23 15 -24 -46 28 43 -49 54 0
12 -14 -24 -39 18 -27 -48 -19 -43 -49 -61 0
12 -14 -24 -39 -18 -42 -48 21 -30 -51 -63 0
12 -14 -24 -39 18 -27 -48 -21 -45 -51 -63 0
12 -14 -24 -39 -28 -43 -49 -20 29 -44 -64 0
12 -14 -24 -39 -19 -43 -49 20 -29 -50 -64 0
12 -14 -24 -39 19 -28 -49 -20 -44 -50 -64 0
12 -14 -24 -39 -19 28 -43 -29 -44 -50 -64 0
12 -14 -24 -39 -19 28 43 49 20 44 -50 64 0
12 -14 -24 -39 -28 -43 -49 -21 30 -45 -65 0
12 -14 -24 -39 -19 -43 -49 21 -30 -51 -65 0
12 -14 -24 -39 19 -28 -49 -21 -45 -51 -65 0
12 -14 -24 -39 -19 28 -43 -30 -45 -51 -65 0
12 -14 -24 -39 -29 -44 -50 -21 30 -45 -66 0
12 -14 -24 -39 -20 -44 -50 21 -30 -51 -66 0
12 -14 -24 -39 20 -29 -50 -21 -45 -51 -66 0
12 -14 -24 -39 -20 29 -44 -30 -45 -51 -66 0
12 -16 25 -26 -41 52 18 27 42 -57 0
12 -14 -16 25 -26 52 -18 42 53 57 0
12 -16 25 -26 -41 52 19 28 43 -58 0
12 -14 -16 25 -26 52 -19 43 54 58 0
12 -16 25 -26 -41 52 20 29 44 -59 0
12 -14 -16 25 -26 52 -20 44 55 59 0
12 -16 25 -26 -41 52 21 30 45 -60 0
12 -14 -16 25 -26 52 -21 45 56 60 0
12 -14 23 -16 25 -18 53 -19 28 54 -61 0
12 -14 23 -16 25 -18 53 -21 30 56 -63 0
12 -14 23 -16 25 40 -18 42 53 -21 -30 45 63 0
12 -14 23 -16 25 -19 43 -20 29 44 -64 0
12 -14 23 -16 25 -19 28 54 -20 55 -64 0
12 23 -16 25 19 28 43 -20 29 55 -64 0
12 -14 23 -16 25 40 -19 43 54 -20 -29 44 64 0
12 -14 23 -16 25 -19 43 -21 30 45 -65 0
12 -14 23 -16 25 -19 28 54 -21 56 -65 0
12 -14 23 -16 25 -20 29 44 -21 45 -66 0
12 -14 23 -16 25 -20 44 -21 30 45 -66 0
12 -14 23 -16 25 -20 29 55 -21 56 -66 0
12 23 -16 25 20 29 44 -21 30 56 -66 0
12 -14 23 -16 25 -20 55 -21 30 56 -66 0
12 -14 -26 -41 -27 -42 -57 -19 28 -43 -61 0
12 -14 -26 -41 -18 -42 -57 20 -29 -59 -62 0
12 -14 -26 -41 -28 -43 -58 -20 29 -44 -64 0
12 -14 -26 -41 -19 -43 -58 20 -29 -59 -64 0
12 -14 -26 -41 19 -28 -58 -20 -44 -59 -64 0
12 -14 -26 -41 28 -43 58 20 -29 44 59 64 0
12 -14 -26 -41 -28 -43 -58 -21 30 -45 -65 0
12 -14 -26 -41 -19 -43 -58 21 -30 -60 -65 0
12 -14 -26 -41 19 -28 -58 -21 -45 -60 -65 0
12 -14 -26 -41 -19 28 -43 -30 -45 -60 -65 0
12 -14 -26 -41 28 -43 58 21 -30 45 60 65 0
12 -14 -26 -41 -29 -44 -59 -21 30 -45 -66 0
12 -14 -26 -41 -20 -44 -59 21 -30 -60 -66 0
12 -14 -26 -41 20 -29 -59 -21 -45 -60 -66 0
12 -14 -26 -41 29 -44 59 21 -30 45 60 66 0
12 -16 -46 17 -26 52 18 27 48 -53 0
-24 -16 25 17 -26 52 18 -27 48 57 0
12 -24 -16 17 -26 52 -27 48 53 57 0
12 -16 -46 17 -26 52 19 28 49 -54 0
12 -24 -16 17 -26 52 -28 49 54 58 0
12 -16 -46 17 -26 52 20 29 50 -55 0
12 -24 -16 17 -26 52 -29 50 55 59 0
12 -16 -46 17 -26 52 21 30 51 -56 0
12 -24 -16 17 -26 52 -30 51 56 60 0
12 -24 -16 -46 -18 -48 -53 19 -28 -49 -61 0
12 -24 -16 -46 -27 -48 -53 -19 28 -54 -61 0
12 -24 -16 -46 -18 -48 -53 20 -29 -50 -62 0
12 -24 -16 -46 18 -27 -48 -21 -51 -56 -63 0
12 -24 -16 -46 -18 27 -53 -30 -51 -56 -63 0
12 -24 -16 -46 -19 -49 -54 20 -29 -50 -64 0
12 -24 -16 -46 -28 -49 -54 -20 29 -55 -64 0
12 -24 -16 -46 19 -28 -49 -20 -50 -55 -64 0
12 -24 -16 -46 -19 28 -54 -29 -50 -55 -64 0
12 -24 -16 -46 -19 28 49 54 20 -50 55 64 0
12 -24 -16 -46 -19 -49 -54 21 -30 -51 -65 0
12 -24 -16 -46 -28 -49 -54 -21 30 -56 -65 0
12 -24 -16 -46 19 -28 -49 -21 -51 -56 -65 0
12 -24 -16 -46 -19 28 -54 -30 -51 -56 -65 0
12 -24 -16 -46 -29 -50 -55 -21 30 -56 -66 0
12 -24 -16 -46 -20 29 -55 -30 -51 -56 -66 0
15 -24 -26 18 -27 -48 57 20 29 50 59 -62 0
12 15 -24 17 -26 47 -28 49 58 -20 -29 50 64 0
12 15 -24 17 -26 -28 49 21 -30 51 -65 0
12 15 -24 17 -26 19 -28 58 -30 60 -65 0
12 15 -24 17 -26 20 -29 59 -30 60 -66 0
12 15 -24 17 -26 -29 59 21 -30 60 -66 0
12 15 -24 17 -26 47 -20 -29 50 -30 51 60 66 0
12 -16 25 -19 28 -20 29 55 64 -30 -56 66 0
12 17 -26 -19 -58 20 -29 59 64 21 -30 66 0
13 31 32 -39 35 -42 48 21 38 45 -63 0
13 -14 31 32 36 43 49 20 37 -44 -64 0
13 31 32 -39 36 -43 49 20 37 44 -64 0
13 -14 31 32 19 36 -43 37 44 50 -64 0
13 -14 31 32 -39 -43 49 37 -44 50 -64 0
13 -14 31 32 -39 19 -43 21 38 -45 -65 0
13 -14 31 32 36 43 49 21 38 -45 -65 0
13 -14 31 32 19 36 -43 38 45 51 -65 0
13 -14 31 32 -39 -43 49 38 -45 51 -65 0
13 -14 31 15 32 -39 19 -43 49 -38 -45 51 65 0
13 -14 31 32 -39 20 -44 21 38 -45 -66 0
13 -14 31 32 37 44 50 21 38 -45 -66 0
13 31 32 -39 37 -44 50 21 38 45 -66 0
13 -14 31 32 20 37 -44 38 45 51 -66 0
-14 -16 -33 -34 -41 -18 -35 42 -53 57 0
-14 -16 -33 -34 -41 -18 35 -42 -53 57 0
-14 -16 -33 -34 -41 -18 35 -42 53 -57 0
-14 -16 -33 -34 -41 18 -35 -42 53 -57 0
-14 -16 -33 -34 -41 18 -35 42 -53 -57 0
-14 -16 -33 -34 -41 -19 -36 43 -54 58 0
-14 -16 -33 -34 -41 -19 36 -43 -54 58 0
-14 -16 -33 -34 -41 -19 36 -43 54 -58 0
-14 -16 -33 -34 -41 19 -36 -43 54 -58 0
-14 -16 -33 -34 -41 19 -36 43 -54 -58 0
-14 -16 -33 -34 -41 -20 -37 44 -55 59 0
-14 -16 -33 -34 -41 -20 37 -44 -55 59 0
-14 -16 -33 -34 -41 -20 37 -44 55 -59 0
-14 -16 -33 -34 -41 20 -37 -44 55 -59 0
-14 -16 -33 -34 -41 20 -37 44 -55 -59 0
-14 -16 -33 -34 -41 -21 -38 45 -56 60 0
-14 -16 -33 -34 -41 -21 38 -45 -56 60 0
-14 -16 -33 -34 -41 -21 38 -45 56 -60 0
-14 -16 -33 -34 -41 21 -38 -45 56 -60 0
-14 -16 -33 -34 -41 21 -38 45 -56 -60 0
-14 31 -16 -33 -18 -35 -53 -19 36 -43 -61 0
-14 31 -16 -33 -18 -35 -53 -20 37 -44 -62 0
-14 31 -16 -33 -19 -36 -54 -20 37 -44 -64 0
-14 31 -16 -33 -19 -43 -54 -37 44 -55 -64 0
31 -16 -33 19 -43 54 20 37 44 -55 64 0
-14 31 -16 -33 -19 36 54 20 -37 44 55 64 0
-14 31 -16 -33 -19 36 -43 -21 -38 -56 -65 0
-14 31 -16 -33 -20 -37 -55 -21 38 -45 -66 0
-14 31 -16 -33 20 -37 44 55 -21 38 56 66 0
13 -34 -41 -19 43 58 20 37 44 -59 64 0
13 -14 -34 -41 -36 -43 -58 -21 38 -45 -65 0
13 -14 -34 -41 -20 -44 -59 21 -38 -60 -66 0
13 -14 -34 -41 20 -37 -59 -21 -45 -60 -66 0
13 -14 -34 -41 -20 37 -44 -38 -45 -60 -66 0
13 -14 31 -18 35 37 44 -21 38 -45 -63 -66 0
13 -14 31 -19 36 -20 37 44 64 -38 -45 66 0
13 15 32 18 35 36 49 61 20 -50 62 0
13 15 32 36 49 -20 50 64 21 38 65 0
13 15 32 36 -49 20 37 64 21 51 66 0
-16 -33 17 -34 -18 -35 -53 19 -36 -58 -61 0
-16 -33 17 -34 -35 -53 -57 -19 -54 58 -61 0
-16 -33 17 -34 18 -35 53 -20 37 55 59 62 0
-16 -33 17 -34 -18 -53 57 -38 -56 -60 -63 0
-16 -33 17 -34 19 -36 -58 -20 -37 -55 -64 0
-16 -33 17 -34 -19 -36 -54 20 -37 -59 -64 0
-16 -33 17 -34 -36 -54 -58 -20 -55 59 -64 0
-16 -33 17 -34 -19 -54 58 -37 -55 -59 -64 0
-16 -33 17 -34 -19 36 54 58 20 -37 55 64 0
-16 -33 17 -34 19 -36 54 -21 38 56 60 65 0
-16 -33 17 -34 20 -37 -59 -21 -38 -56 -66 0
-16 -33 17 -34 -20 -37 -55 21 -38 -60 -66 0
-16 -33 17 -34 -20 -55 59 -38 -56 -60 -66 0
-16 -33 18 -35 53 -19 36 61 -20 37 -55 62 0
-16 -33 -19 -36 -54 -20 -64 -38 -65 -66 0
-16 -33 -19 -20 -37 -55 -64 -38 -65 -66 0
-16 -33 -19 -37 -64 -21 -38 -56 -65 -66 0
-16 -33 -19 -54 -37 -55 -64 21 -38 -65 -66 0
-16 -33 19 -36 54 -20 37 64 -21 38 -56 65 0
13 17 -34 18 35 -57 -19 -36 61 20 -59 62 0
13 17 -34 18 35 -57 -19 -58 -61 20 -59 -64 0
13 17 -34 18 35 19 -36 -58 -61 20 -59 -64 0
-14 -39 -16 -46 -18 48 -53 -19 -43 49 -61 0
-14 -39 -16 -46 -18 48 -53 -20 -44 50 -62 0
-14 -39 -16 -46 -18 -42 53 -44 -50 55 -62 0
-14 -39 -16 -46 -18 -42 48 -21 51 -56 -63 0
-14 -39 -16 -46 -18 42 -53 45 -51 -56 -63 0
-14 -39 -16 -46 -19 49 -54 -20 -44 50 -64 0
-14 -39 -16 -46 19 -49 -54 20 -44 -50 -64 0
-14 -39 -16 -46 -43 -49 54 -20 -44 55 -64 0
-14 -39 -16 -46 43 -49 -54 -20 44 -55 -64 0
-14 -39 -16 -46 -19 -43 49 -20 50 -55 -64 0
-14 -39 -16 -46 -19 -43 54 -44 -50 55 -64 0
-14 -39 -16 -46 -19 43 -54 44 -50 -55 -64 0
-14 -39 -16 -46 -19 49 -54 -21 -45 51 -65 0
-14 -39 -16 -46 -19 -43 49 -21 51 -56 -65 0
-14 -39 -16 -46 19 -43 -49 21 -51 -56 -65 0
-14 -39 -16 -46 -20 50 -55 -21 -45 51 -66 0
-14 -39 -16 -46 20 -50 -55 21 -45 -51 -66 0
-14 -39 -16 -46 -44 -50 55 -21 -45 56 -66 0
-14 -39 -16 -46 -20 -44 50 -21 51 -56 -66 0
-14 -39 -16 -46 20 -44 -50 21 -51 -56 -66 0
-14 -39 -16 -46 -20 -44 55 -45 -51 56 -66 0
-14 -39 -16 -46 -20 44 -55 45 -51 -56 -66 0
-14 -41 47 19 -43 49 58 20 44 -50 64 0
-14 -41 47 20 44 -50 21 -45 51 60 66 0
-14 -39 18 -42 -48 -19 -43 49 61 20 44 -50 62 0
-14 -39 18 -42 -48 19 43 -49 61 -20 44 50 64 0
-14 -39 -18 -42 -48 -50 -62 -21 -63 -66 0
-14 -39 -49 -20 -44 -50 -64 -21 -65 -66 0
-14 -39 -49 -20 -64 -21 -45 -51 -65 -66 0
-14 -39 -43 49 20 44 64 -21 -45 51 -65 -66 0
-14 -39 19 -43 -49 20 44 -50 64 -21 -45 51 65 0
-14 -39 -19 -43 49 20 -44 -50 64 21 45 -51 66 0
-14 -39 -19 43 49 20 44 -50 64 21 -45 -51 66 0
-14 -16 52 -19 43 54 58 20 44 -59 64 0
-14 -41 52 19 43 54 58 21 -45 56 -60 -65 0
-14 -16 -41 52 -20 -44 -59 -21 -56 60 -66 0
-14 -41 52 20 -44 55 -59 21 45 56 60 -66 0
-14 -16 -42 53 -19 -54 -61 -21 -45 -63 -65 0
-14 -16 -18 -42 43 -54 -61 -21 -56 -63 -65 0
-14 -16 42 -53 -20 -55 -62 -21 -45 -63 -66 0
-14 -16 -19 -43 54 20 44 -55 64 -45 56 66 0
-14 -41 -57 -20 -62 -21 -45 -60 -63 -66 0
-14 -41 -19 -43 58 20 44 -59 64 -21 60 66 0
-14 -41 -19 -43 58 20 -44 -59 64 21 45 -60 66 0
15 -16 -46 17 47 52 18 -53 -57 19 49 -54 61 0
15 -16 -46 17 47 52 18 48 -53 49 -54 -58 61 0
-46 17 47 52 48 -53 57 20 55 59 -62 0
15 -16 -46 17 47 52 18 48 -53 51 -56 -60 63 0
-46 17 47 52 49 -54 58 20 55 59 -64 0
-46 17 47 52 19 54 58 50 -55 59 -64 0
15 -16 -46 17 47 52 19 49 -54 50 -55 -59 64 0
-16 -46 17 47 52 19 -54 58 21 -56 -65 0
-16 -46 17 47 52 49 -54 58 51 -56 -65 0
-16 17 47 52 49 54 58 21 -56 60 -65 0
-46 17 47 52 49 -54 58 21 56 60 -65 0
-46 17 47 52 19 54 58 51 -56 60 -65 0
15 -16 -46 17 47 52 19 49 -54 51 -56 -60 65 0
-46 17 47 52 50 -55 59 21 56 60 -66 0
-16 17 47 52 20 -55 59 51 56 60 -66 0
-46 17 47 52 20 55 59 51 -56 60 -66 0
-16 -46 -18 -53 -49 -54 -61 20 -50 -62 -64 0
-16 -46 18 -48 -53 -19 49 -54 61 20 -50 55 62 0
-16 -46 -48 -53 -20 50 -62 -21 -56 -63 -66 0
-16 -46 -18 -53 -20 50 -62 -51 -56 -63 -66 0
-16 -46 -49 -54 20 -50 -64 -21 -56 -65 -66 0
-16 -46 49 -54 -20 50 -55 -64 21 56 65 -66 0
-16 -46 -19 49 -54 20 -50 -55 64 21 -51 56 66 0
15 17 47 57 49 58 61 20 59 62 0
15 17 47 58 20 59 64 51 60 65 0
15 17 47 19 58 59 64 51 60 66 0
15 17 47 49 58 -20 50 64 21 60 65 0
-16 17 52 -18 53 -19 -54 -58 61 -20 55 59 62 0
-16 17 52 -18 53 -20 55 59 62 -21 -56 -60 63 0
-16 17 52 -19 54 -20 55 59 64 -21 -56 -60 65 0
-16 17 52 -19 -54 -58 -20 55 64 -21 56 60 66 0
-16 17 52 -19 54 58 -20 55 64 -21 -56 -60 66 0
22 23 31 -24 32 -39 27 42 -48 -37 44 -50 62 0
22 31 -24 32 27 35 -48 38 45 51 -63 0
22 31 -24 32 36 43 49 29 37 -50 -64 0
22 31 -24 32 28 36 -49 37 44 50 -64 0
22 23 31 -24 32 -39 28 43 -49 -37 44 -50 64 0
22 31 -24 32 36 43 49 30 38 -51 -65 0
22 31 -24 32 -39 36 43 -49 45 -51 -65 0
22 31 -24 32 28 36 -49 38 45 51 -65 0
22 31 32 -39 28 36 49 38 45 -51 -65 0
22 23 31 -24 32 -39 28 43 -49 -38 45 -51 65 0
22 31 -24 32 -39 29 -50 30 38 -51 -66 0
22 31 -24 32 37 44 50 30 38 -51 -66 0
22 31 -24 32 29 37 -50 38 45 51 -66 0
22 31 -24 32 -39 44 -50 38 45 -51 -66 0
22 23 31 -24 32 -39 -37 44 -50 30 45 -51 66 0
23 31 -33 40 28 36 43 -37 44 55 -64 0
23 31 -33 40 -36 43 54 30 38 45 -65 0
23 31 -33 40 28 36 43 -38 45 56 -65 0
31 -26 -34 27 -42 57 28 36 43 -58 61 0
22 23 31 -28 43 37 44 64 30 38 66 0
22 23 31 -28 36 37 44 64 30 45 66 0
22 23 31 28 36 37 44 64 -30 45 66 0
-24 -33 -46 -26 -34 -27 35 -48 -53 57 0
-24 -33 -46 -26 -34 27 -35 -48 -53 57 0
-24 -33 -46 -26 -34 -27 -35 48 53 -57 0
-24 -33 -46 -26 -34 -27 35 -48 53 -57 0
-24 -33 -46 -26 -34 27 -35 48 -53 -57 0
-24 -33 -46 -26 -34 -28 36 -49 -54 58 0
-24 -33 -46 -26 -34 28 -36 -49 -54 58 0
-24 -33 -46 -26 -34 -28 -36 49 54 -58 0
-24 -33 -46 -26 -34 -28 36 -49 54 -58 0
-24 -33 -46 -26 -34 28 -36 49 -54 -58 0
-24 -33 -46 -26 -34 -29 37 -50 -55 59 0
-24 -33 -46 -26 -34 29 -37 -50 -55 59 0
-24 -33 -46 -26 -34 -29 -37 50 55 -59 0
-24 -33 -46 -26 -34 -29 37 -50 55 -59 0
-24 -33 -46 -26 -34 29 -37 50 -55 -59 0
-24 -33 -46 -26 -34 -30 38 -51 -56 60 0
-24 -33 -46 -26 -34 30 -38 -51 -56 60 0
-24 -33 -46 -26 -34 -30 -38 51 56 -60 0
-24 -33 -46 -26 -34 -30 38 -51 56 -60 0
-24 -33 -46 -26 -34 30 -38 51 -56 -60 0
22 -24 -33 -46 27 -35 -53 -30 -51 -56 -63 0
22 -24 -33 -46 -36 -49 -54 -29 37 -50 -64 0
22 -24 -33 -46 -36 -49 -54 -30 38 -51 -65 0
22 -24 -33 -46 -37 -50 -55 -30 38 -51 -66 0
22 -24 -33 -46 29 -37 -55 -30 -51 -56 -66 0
22 -24 -33 -46 -29 37 -50 -38 -51 -56 -66 0
-24 32 -26 -34 -27 -35 -57 -28 36 -49 -61 0
-24 32 -26 -34 27 -35 48 57 -29 37 59 62 0
-24 32 -26 -34 -28 36 -49 -30 -38 -60 -65 0
-24 32 -26 -34 -29 -37 -59 -30 38 -51 -66 0
-24 32 -26 -34 -29 -50 -59 -38 51 -60 -66 0
-24 32 -26 -34 29 -37 50 59 -30 38 60 66 0
25 -33 -26 -34 -27 53 -57 -37 -55 -59 -62 0
25 -33 -26 -34 27 -35 57 -29 37 55 59 62 0
25 -33 -26 -34 28 -36 -54 -29 -37 -59 -64 0
25 -33 -26 -34 28 -36 58 -29 37 55 59 64 0
25 -33 -26 -34 -28 -36 -58 30 -38 -56 -65 0
25 -33 -26 -34 28 -36 -54 -30 -38 -60 -65 0
25 -33 -26 -34 28 -36 58 -30 38 56 60 65 0
25 -33 -34 28 36 54 58 30 -38 -56 60 -65 0
25 -33 -26 -34 -29 -37 -59 30 -38 -56 -66 0
25 -33 -26 -34 29 -37 -55 -30 -38 -60 -66 0
-26 -34 -28 -36 -58 -29 -64 -38 -65 -66 0
-26 -34 -36 -29 -64 -30 -38 -60 -65 -66 0
-26 -34 -28 -37 -64 -30 -38 -60 -65 -66 0
-26 -34 -36 -58 -29 -59 -64 -30 38 -65 -66 0
-26 -34 -36 -58 -29 -59 -64 30 -38 -65 -66 0
-24 -39 25 28 43 -49 54 44 50 -55 64 0
-24 -39 25 -28 43 -49 54 30 45 51 56 -65 0
23 -24 -46 29 44 50 55 -30 45 -51 56 -66 0
-24 -39 -26 -41 -27 42 -57 -29 44 -50 -62 0
-24 -39 -26 -41 -27 42 -48 -30 45 -60 -63 0
-24 -39 -26 -41 -42 48 -57 -30 51 -60 -63 0
-24 -39 -26 -41 -28 43 -58 -29 44 -50 -64 0
-24 -39 -26 -41 -28 43 -49 -29 44 -59 -64 0
-24 -39 -26 -41 -28 -49 58 -44 -50 59 -64 0
-24 -39 -26 -41 -28 43 -58 -30 45 -51 -65 0
-24 -39 -26 -41 28 -43 -58 30 -45 -51 -65 0
-24 -39 -26 -41 -28 43 -49 -30 45 -60 -65 0
-24 -39 -26 -41 28 -43 -49 30 -45 -60 -65 0
-24 -39 -26 -41 -43 -49 58 -30 -51 60 -65 0
-24 -39 -26 -41 -43 49 -58 -30 51 -60 -65 0
-24 -39 -26 -41 -29 44 -59 -30 45 -51 -66 0
-24 -39 -26 -41 -29 44 -50 -30 45 -60 -66 0
-24 -39 -26 -41 -44 -50 59 -30 -51 60 -66 0
-24 -39 -26 -41 -29 -50 59 -45 -51 60 -66 0
-24 -39 27 -42 48 -28 43 49 61 29 -44 -50 62 0
-24 -39 -42 -48 -28 -49 -61 -30 45 -63 -65 0
-24 -39 -27 -42 -48 -44 -62 -30 -63 -66 0
-24 -39 -42 -48 29 -44 -62 -30 -51 -63 -66 0
-24 -39 -43 -29 -44 -50 -64 -30 -65 -66 0
-24 -39 -43 -29 -64 -30 -45 -51 -65 -66 0
-24 -39 -28 -49 -44 -50 -64 -30 45 -65 -66 0
-24 -39 28 -43 -44 -50 -64 -30 -51 -65 -66 0
-24 -39 28 -43 -49 -29 44 50 64 30 -45 66 0
-24 -39 43 -49 -29 44 -50 -64 30 51 65 -66 0
-24 -39 28 -43 -49 -29 44 -50 64 30 -45 51 65 0
-24 -39 28 -43 -49 29 -44 50 64 -30 45 -51 65 0
-24 -39 28 -43 -49 29 -44 50 64 -30 45 51 66 0
-24 -39 28 -43 -49 -29 44 -50 64 -30 45 51 66 0
-24 -39 -28 43 -49 29 -44 -50 64 30 -45 51 66 0
-24 -39 28 -43 49 -29 44 50 64 -30 45 -51 66 0
-24 -39 28 -43 49 29 -44 -50 64 -30 45 -51 66 0
25 40 -41 52 27 53 57 43 54 -58 -61 0
23 25 40 -26 -41 52 27 42 -57 44 -55 -59 62 0
25 40 -26 52 43 54 58 29 55 -59 -64 0
25 40 -41 52 43 54 -58 29 55 59 -64 0
25 40 -26 -41 52 43 -58 44 55 -59 -64 0
25 40 -41 52 28 54 58 44 55 -59 -64 0
23 25 40 -26 -41 52 28 43 -58 44 -55 -59 64 0
25 40 -26 52 -28 54 58 30 45 56 -65 0
25 40 -41 52 -43 54 58 30 45 56 -65 0
25 40 -41 52 43 54 -58 30 56 60 -65 0
25 40 -41 52 28 54 58 45 56 -60 -65 0
25 40 -41 52 44 55 -59 30 56 60 -66 0
25 40 -26 -41 52 44 -59 45 56 -60 -66 0
25 40 -26 52 29 55 -59 45 56 60 -66 0
25 40 -41 52 29 55 59 45 56 -60 -66 0
23 25 40 -26 -41 52 44 -55 -59 30 45 -60 66 0
23 25 40 53 43 54 61 29 55 62 0
23 25 40 53 28 54 61 44 55 62 0
23 25 40 27 53 43 54 55 62 64 0
23 25 40 27 53 43 54 61 -29 44 64 0
25 40 27 42 53 -28 61 -30 -45 56 -63 -65 0
23 25 40 54 44 55 64 30 56 65 0
23 25 40 28 54 29 64 30 45 66 0
23 25 40 43 54 55 64 30 56 66 0
23 25 40 -28 54 44 55 64 30 45 66 0
23 25 40 28 54 44 55 64 -30 45 66 0
23 25 40 -28 43 44 55 64 30 56 66 0
23 25 40 28 -43 29 55 64 45 56 66 0
-26 -41 -42 -57 28 -43 -61 -30 -60 -63 -65 0
-26 -41 -42 -29 -62 -30 -45 -60 -63 -66 0
-26 -41 28 -43 -58 -29 44 -59 64 -30 45 60 66 0
-26 -41 28 -43 58 29 -44 -59 64 -30 45 -60 66 0
-24 -46 -26 52 -48 -53 57 -30 -51 -60 -63 0
-24 -46 -26 52 -28 -49 -54 -30 56 -60 -65 0
-24 -46 -26 52 -50 -55 59 -30 -51 -60 -66 0
-24 -46 -26 52 -29 -50 -59 -51 -56 60 -66 0
-24 -46 52 29 -50 -55 59 30 51 56 60 -66 0
-24 -46 -27 -48 53 -28 54 -61 29 50 55 62 -64 0
-24 -46 -53 -29 -62 -30 -51 -56 -63 -66 0
-24 -46 -54 -29 -64 -30 -51 -56 -65 -66 0
-24 -46 -49 54 29 50 64 -30 -51 56 -65 -66 0
-24 -26 -57 -50 -62 -30 -51 -60 -63 -66 0
-24 -26 -27 -48 -50 59 -62 -30 -60 -63 -66 0
-24 -26 -58 -50 -64 -30 -51 -60 -65 -66 0
-24 -26 -49 58 -29 -50 -64 -30 -60 -65 -66 0
25 -26 52 -27 53 -28 54 58 61 -55 -59 64 0
25 -26 52 -27 53 -29 55 59 -30 -56 -63 -66 0
25 -26 52 -28 58 -29 -55 -59 64 -30 56 60 65 0
25 -26 52 -28 58 -29 55 59 64 -30 -56 -60 65 0
25 -26 52 -28 -54 -58 -29 59 64 -30 56 60 66 0
25 -26 52 -28 54 58 -29 59 64 -30 -56 -60 66 0
-39 -33 -46 -34 -41 35 -42 -48 53 -57 0
-39 -33 -46 -34 -41 -35 42 48 -53 -57 0
-39 -33 -46 -34 -41 -36 43 -49 -54 58 0
-39 -33 -46 -34 -41 36 -43 -49 -54 58 0
-39 -33 -46 -34 -41 -36 -43 49 54 -58 0
-39 -33 -46 -34 -41 36 -43 -49 54 -58 0
-39 -33 -46 -34 -41 -36 43 49 -54 -58 0
-39 -33 -46 -34 -41 -37 44 -50 -55 59 0
-39 -33 -46 -34 -41 37 -44 -50 -55 59 0
-39 -33 -46 -34 -41 37 -44 -50 55 -59 0
-39 -33 -46 -34 -41 -37 44 50 -55 -59 0
-39 -33 -46 -34 -41 -38 45 -51 -56 60 0
-39 -33 -46 -34 -41 -38 45 51 -56 -60 0
31 -33 -46 -43 49 54 37 44 50 -55 64 0
31 -39 -46 37 44 50 55 38 -45 -51 56 -66 0
32 -34 -41 35 42 48 -57 44 -50 59 62 0
32 -34 -41 43 -49 58 37 44 50 -59 64 0
32 -39 -41 36 43 49 58 37 -44 -50 59 -64 0
32 -39 -34 -41 -37 -44 -59 38 -45 -51 -66 0
32 -39 -41 37 44 50 59 38 -45 -51 60 -66 0
31 32 -39 35 -42 37 -44 -50 -62 38 51 -66 0
31 32 -42 37 -44 -50 -62 38 45 51 63 -66 0
31 32 -48 37 -44 -50 -62 38 45 51 63 -66 0
31 32 -39 36 -49 37 -44 -50 -64 38 45 -66 0
31 32 -43 37 -44 -50 -64 38 45 51 65 -66 0
31 32 -43 37 44 50 64 38 -45 -51 -65 -66 0
31 32 -49 37 -44 -50 -64 38 45 51 65 -66 0
31 32 -49 37 44 50 64 38 -45 -51 -65 -66 0
-33 40 -34 -41 -35 -53 -57 -43 54 -58 -61 0
-33 40 -34 -41 -36 -43 -58 -38 45 -56 -65 0
31 -33 40 -35 42 -37 44 55 -38 -45 -63 -66 0
31 -33 40 -36 -43 37 44 -55 64 45 -56 66 0
-34 -41 -43 -37 -44 -59 -64 -38 -65 -66 0
-34 -41 -36 -43 58 44 -59 64 38 45 -60 66 0
-33 -46 -34 47 -35 48 53 37 -50 55 59 62 0
-33 -46 -34 47 -36 49 54 38 -51 56 60 65 0
-33 -46 -34 47 -50 -55 59 -38 -56 -60 -66 0
-33 -46 -49 -37 -64 -38 -51 -56 -65 -66 0
32 -34 47 36 49 -58 50 -59 64 -38 -51 65 0
32 -34 47 -36 -49 37 50 -59 64 51 -60 66 0
32 -34 47 -36 49 -37 50 59 -38 -51 -65 -66 0
-33 -34 -35 57 36 -54 -58 61 -37 55 59 62 0
-39 -41 52 42 48 -53 -43 49 54 58 61 0
-39 -41 52 42 48 -53 -44 50 55 59 62 0
-39 -46 -41 52 -43 54 -58 -44 -50 -55 -64 0
-39 -46 -41 52 -43 -49 -54 -44 55 -59 -64 0
-39 -46 52 43 49 -58 44 -50 55 59 64 0
-39 -41 52 43 49 -54 -45 51 56 60 65 0
-39 -46 52 43 49 -58 45 -51 56 60 65 0
-39 -46 52 44 50 -59 45 -51 56 60 66 0
-39 -46 -48 53 -43 -49 54 -61 44 50 62 -64 0
-39 -46 -43 -49 54 44 50 -55 64 -45 56 66 0
-39 -46 -43 49 -54 44 -50 64 45 -51 56 66 0
-39 -46 43 -49 -54 44 50 -55 64 -45 -51 56 65 0
-39 -46 43 -49 -54 -44 -50 55 64 45 51 -56 65 0
-39 -46 43 49 -54 -44 50 55 64 -45 -51 56 66 0
-39 -41 -42 48 -57 -43 -49 58 61 44 50 -59 62 0
-39 -41 -42 -48 -57 -50 -62 -60 -63 -66 0
-39 -41 -57 -50 -62 -45 -51 -60 -63 -66 0
-39 -41 -43 49 58 -44 59 64 45 -51 -60 66 0
-39 -41 43 49 -58 -44 50 -59 64 -45 -51 60 66 0
40 -41 52 -42 -53 -57 43 54 -58 44 -59 62 64 0
40 -41 52 -42 53 57 -44 55 62 -56 -60 63 0
40 -41 52 -42 53 -55 -59 -45 56 60 63 66 0
-46 -53 -49 -54 -50 55 62 64 51 -56 -63 0
-46 -53 49 -54 -61 -50 -55 -51 56 63 66 0
-46 -48 -53 -49 54 50 -55 62 -51 -65 66 0
-46 -48 -53 -49 -50 55 62 64 51 -56 63 -65 0
-46 -53 -49 54 -61 -50 -55 64 51 -56 63 66 0
52 -53 -57 55 59 62 64 -56 -63 -65 -66 0
-12 0
-13 0
14 0
-15 0
16 0
-17 0
-22 0
-23 0
24 0
-25 0
26 0
-31 0
-32 0
39 0
41 0
46 0
